Zn S                                    
   1.0000000000000000     
     1.9435655522662303   -3.3663542843657752    0.0000000000000000
     1.9435655522662303    3.3663542843657752    0.0000000000000000
     0.0000000000000000    0.0000000000000000    6.3733315464154456
   Zn   S 
     2     2
Direct
  0.3333333333333357  0.6666666666666643  0.0001518010959285
  0.6666666666666643  0.3333333333333357  0.5001518010959286
  0.3333333333333357  0.6666666666666643  0.3748481989040716
  0.6666666666666643  0.3333333333333357  0.8748481989040714

  0.00000000E+00  0.00000000E+00  0.00000000E+00
  0.00000000E+00  0.00000000E+00  0.00000000E+00
  0.00000000E+00  0.00000000E+00  0.00000000E+00
  0.00000000E+00  0.00000000E+00  0.00000000E+00
