Zn S                                    
   1.0000000000000000     
     1.8858358823969363   -3.2663635630479799    0.0000000000000000
     1.8858358823969363    3.2663635630479799    0.0000000000000000
     0.0000000000000000    0.0000000000000000    6.1840246687991449
   Zn   S 
     2     2
Direct
  0.3333333333333357  0.6666666666666643  0.0004124866068195
  0.6666666666666643  0.3333333333333357  0.5004124866068196
  0.3333333333333357  0.6666666666666643  0.3745875133931804
  0.6666666666666643  0.3333333333333357  0.8745875133931804

  0.00000000E+00  0.00000000E+00  0.00000000E+00
  0.00000000E+00  0.00000000E+00  0.00000000E+00
  0.00000000E+00  0.00000000E+00  0.00000000E+00
  0.00000000E+00  0.00000000E+00  0.00000000E+00
