generated by phonopy
   1.0
     5.6575076471908092   -9.7990906891439398    0.0000000000000000
     5.6575076471908092    9.7990906891439398    0.0000000000000000
     0.0000000000000000    0.0000000000000000   12.3680493375982898
Zn S
  36   36
Direct
  0.1111111111111119  0.2222222222222214  0.0002062433034098
  0.4444444444444452  0.2222222222222214  0.0002062433034098
  0.7777777777777786  0.2222222222222214  0.0002062433034098
  0.1111111111111119  0.5555555555555547  0.0002062433034098
  0.4444444444444452  0.5555555555555547  0.0002062433034098
  0.7777777777777786  0.5555555555555547  0.0002062433034098
  0.1111111111111119  0.8888888888888881  0.0002062433034098
  0.4444444444444452  0.8888888888888881  0.0002062433034098
  0.7777777777777786  0.8888888888888881  0.0002062433034098
  0.1111111111111119  0.2222222222222214  0.5002062433034098
  0.4444444444444452  0.2222222222222214  0.5002062433034098
  0.7777777777777786  0.2222222222222214  0.5002062433034098
  0.1111111111111119  0.5555555555555547  0.5002062433034098
  0.4444444444444452  0.5555555555555547  0.5002062433034098
  0.7777777777777786  0.5555555555555547  0.5002062433034098
  0.1111111111111119  0.8888888888888881  0.5002062433034098
  0.4444444444444452  0.8888888888888881  0.5002062433034098
  0.7777777777777786  0.8888888888888881  0.5002062433034098
  0.2222222222222214  0.1111111111111119  0.2502062433034098
  0.5555555555555547  0.1111111111111119  0.2502062433034098
  0.8888888888888881  0.1111111111111119  0.2502062433034098
  0.2222222222222214  0.4444444444444452  0.2502062433034098
  0.5555555555555547  0.4444444444444452  0.2502062433034098
  0.8888888888888881  0.4444444444444452  0.2502062433034098
  0.2222222222222214  0.7777777777777786  0.2502062433034098
  0.5555555555555547  0.7777777777777786  0.2502062433034098
  0.8888888888888881  0.7777777777777786  0.2502062433034098
  0.2222222222222214  0.1111111111111119  0.7502062433034098
  0.5555555555555547  0.1111111111111119  0.7502062433034098
  0.8888888888888881  0.1111111111111119  0.7502062433034098
  0.2222222222222214  0.4444444444444452  0.7502062433034098
  0.5555555555555547  0.4444444444444452  0.7502062433034098
  0.8888888888888881  0.4444444444444452  0.7502062433034098
  0.2222222222222214  0.7777777777777786  0.7502062433034098
  0.5555555555555547  0.7777777777777786  0.7502062433034098
  0.8888888888888881  0.7777777777777786  0.7502062433034098
  0.1111111111111119  0.2222222222222214  0.1872937566965902
  0.4444444444444452  0.2222222222222214  0.1872937566965902
  0.7777777777777786  0.2222222222222214  0.1872937566965902
  0.1111111111111119  0.5555555555555547  0.1872937566965902
  0.4444444444444452  0.5555555555555547  0.1872937566965902
  0.7777777777777786  0.5555555555555547  0.1872937566965902
  0.1111111111111119  0.8888888888888881  0.1872937566965902
  0.4444444444444452  0.8888888888888881  0.1872937566965902
  0.7777777777777786  0.8888888888888881  0.1872937566965902
  0.1111111111111119  0.2222222222222214  0.6872937566965902
  0.4444444444444452  0.2222222222222214  0.6872937566965902
  0.7777777777777786  0.2222222222222214  0.6872937566965902
  0.1111111111111119  0.5555555555555547  0.6872937566965902
  0.4444444444444452  0.5555555555555547  0.6872937566965902
  0.7777777777777786  0.5555555555555547  0.6872937566965902
  0.1111111111111119  0.8888888888888881  0.6872937566965902
  0.4444444444444452  0.8888888888888881  0.6872937566965902
  0.7777777777777786  0.8888888888888881  0.6872937566965902
  0.2222222222222214  0.1111111111111119  0.4372937566965902
  0.5555555555555547  0.1111111111111119  0.4372937566965902
  0.8888888888888881  0.1111111111111119  0.4372937566965902
  0.2222222222222214  0.4444444444444452  0.4372937566965902
  0.5555555555555547  0.4444444444444452  0.4372937566965902
  0.8888888888888881  0.4444444444444452  0.4372937566965902
  0.2222222222222214  0.7777777777777786  0.4372937566965902
  0.5555555555555547  0.7777777777777786  0.4372937566965902
  0.8888888888888881  0.7777777777777786  0.4372937566965902
  0.2222222222222214  0.1111111111111119  0.9372937566965902
  0.5555555555555547  0.1111111111111119  0.9372937566965902
  0.8888888888888881  0.1111111111111119  0.9372937566965902
  0.2222222222222214  0.4444444444444452  0.9372937566965902
  0.5555555555555547  0.4444444444444452  0.9372937566965902
  0.8888888888888881  0.4444444444444452  0.9372937566965902
  0.2222222222222214  0.7777777777777786  0.9372937566965902
  0.5555555555555547  0.7777777777777786  0.9372937566965902
  0.8888888888888881  0.7777777777777786  0.9372937566965902
