Zn S                                    
   1.0000000000000000     
     1.9628087755559951   -3.3996845248050400    0.0000000000000000
     1.9628087755559951    3.3996845248050400    0.0000000000000000
     0.0000000000000000    0.0000000000000000    6.4364338389542120
   Zn   S 
     2     2
Direct
  0.3333333333333357  0.6666666666666643  0.0000519215380969
  0.6666666666666643  0.3333333333333357  0.5000519215380969
  0.3333333333333357  0.6666666666666643  0.3749480784619031
  0.6666666666666643  0.3333333333333357  0.8749480784619031

  0.00000000E+00  0.00000000E+00  0.00000000E+00
  0.00000000E+00  0.00000000E+00  0.00000000E+00
  0.00000000E+00  0.00000000E+00  0.00000000E+00
  0.00000000E+00  0.00000000E+00  0.00000000E+00
