Zn S                                    
   1.0000000000000000     
     2.0205384454252893   -3.4996752461228358    0.0000000000000000
     2.0205384454252893    3.4996752461228358    0.0000000000000000
     0.0000000000000000    0.0000000000000000    6.6257407165705127
   Zn   S 
     2     2
Direct
  0.3333333333333357  0.6666666666666643 -0.0003204473428172
  0.6666666666666643  0.3333333333333357  0.4996795526571830
  0.3333333333333357  0.6666666666666643  0.3753204473428172
  0.6666666666666643  0.3333333333333357  0.8753204473428170

  0.00000000E+00  0.00000000E+00  0.00000000E+00
  0.00000000E+00  0.00000000E+00  0.00000000E+00
  0.00000000E+00  0.00000000E+00  0.00000000E+00
  0.00000000E+00  0.00000000E+00  0.00000000E+00
