# Functional
GGA = PE

# Electrons
PREC = Accurate
ENCUT = 520
KSPACING = 0.3
ISMEAR = 0; SIGMA = 0.03 # changed
EDIFF = 1e-6
NELM = 120
NELMIN = 8

# Bands
ICHARG = 11 # added
