Zn S 
 1.0000000000000000
     1.9820519988457597   -3.4330147652443053   -0.0000000000000000
     1.9820519988457597    3.4330147652443053    0.0000000000000000
     0.0000000000000000    0.0000000000000000    6.4995361314929792
 Zn  S  
   2   2
Cartesian
  1.9820519988457597  1.1443382550814190  0.0016907468919456
  1.9820519988457597 -1.1443382550814190  3.2514588126384361
  1.9820519988457597  1.1443382550814190  2.4356353024179214
  1.9820519988457597 -1.1443382550814190  5.6854033681644101
Cartesian
  0.0000000000000000  0.0000000000000000  0.0000000000000000
  0.0000000000000000  0.0000000000000000  0.0000000000000000
  0.0000000000000000  0.0000000000000000  0.0000000000000000
  0.0000000000000000  0.0000000000000000  0.0000000000000000
