Zn S 
 1.0000000000000000
     1.8473494358174070   -3.1997030821694494   -0.0000000000000000
     1.8473494358174070    3.1997030821694494    0.0000000000000000
     0.0000000000000000    0.0000000000000000    6.0578200837216114
 Zn  S  
   2   2
Cartesian
  1.8473494358174070  1.0665676940564679  0.0015758417633667
  1.8473494358174070 -1.0665676940564681  3.0304858836241735
  1.8473494358174070  1.0665676940564679  2.2701066896322373
  1.8473494358174070 -1.0665676940564681  5.2990167314930421
Cartesian
  0.0000000000000000  0.0000000000000000  0.0000000000000000
  0.0000000000000000  0.0000000000000000  0.0000000000000000
  0.0000000000000000  0.0000000000000000  0.0000000000000000
  0.0000000000000000  0.0000000000000000  0.0000000000000000
