generated by phonopy
   1.0
     5.7729669869293971   -9.9990721317795295    0.0000000000000000
     5.7729669869293971    9.9990721317795295    0.0000000000000000
     0.0000000000000000    0.0000000000000000   12.6204585077533569
Zn S
  36   36
Direct
  0.1111111111111119  0.2222222222222214  0.0001300667353590
  0.4444444444444452  0.2222222222222214  0.0001300667353590
  0.7777777777777786  0.2222222222222214  0.0001300667353590
  0.1111111111111119  0.5555555555555547  0.0001300667353590
  0.4444444444444452  0.5555555555555547  0.0001300667353590
  0.7777777777777786  0.5555555555555547  0.0001300667353590
  0.1111111111111119  0.8888888888888881  0.0001300667353590
  0.4444444444444452  0.8888888888888881  0.0001300667353590
  0.7777777777777786  0.8888888888888881  0.0001300667353590
  0.1111111111111119  0.2222222222222214  0.5001300667353590
  0.4444444444444452  0.2222222222222214  0.5001300667353590
  0.7777777777777786  0.2222222222222214  0.5001300667353590
  0.1111111111111119  0.5555555555555547  0.5001300667353590
  0.4444444444444452  0.5555555555555547  0.5001300667353590
  0.7777777777777786  0.5555555555555547  0.5001300667353590
  0.1111111111111119  0.8888888888888881  0.5001300667353590
  0.4444444444444452  0.8888888888888881  0.5001300667353590
  0.7777777777777786  0.8888888888888881  0.5001300667353590
  0.2222222222222214  0.1111111111111119  0.2501300667353590
  0.5555555555555547  0.1111111111111119  0.2501300667353590
  0.8888888888888881  0.1111111111111119  0.2501300667353590
  0.2222222222222214  0.4444444444444452  0.2501300667353590
  0.5555555555555547  0.4444444444444452  0.2501300667353590
  0.8888888888888881  0.4444444444444452  0.2501300667353590
  0.2222222222222214  0.7777777777777786  0.2501300667353590
  0.5555555555555547  0.7777777777777786  0.2501300667353590
  0.8888888888888881  0.7777777777777786  0.2501300667353590
  0.2222222222222214  0.1111111111111119  0.7501300667353590
  0.5555555555555547  0.1111111111111119  0.7501300667353590
  0.8888888888888881  0.1111111111111119  0.7501300667353590
  0.2222222222222214  0.4444444444444452  0.7501300667353590
  0.5555555555555547  0.4444444444444452  0.7501300667353590
  0.8888888888888881  0.4444444444444452  0.7501300667353590
  0.2222222222222214  0.7777777777777786  0.7501300667353590
  0.5555555555555547  0.7777777777777786  0.7501300667353590
  0.8888888888888881  0.7777777777777786  0.7501300667353590
  0.1111111111111119  0.2222222222222214  0.1873699332646410
  0.4444444444444452  0.2222222222222214  0.1873699332646410
  0.7777777777777786  0.2222222222222214  0.1873699332646410
  0.1111111111111119  0.5555555555555547  0.1873699332646410
  0.4444444444444452  0.5555555555555547  0.1873699332646410
  0.7777777777777786  0.5555555555555547  0.1873699332646410
  0.1111111111111119  0.8888888888888881  0.1873699332646410
  0.4444444444444452  0.8888888888888881  0.1873699332646410
  0.7777777777777786  0.8888888888888881  0.1873699332646410
  0.1111111111111119  0.2222222222222214  0.6873699332646410
  0.4444444444444452  0.2222222222222214  0.6873699332646410
  0.7777777777777786  0.2222222222222214  0.6873699332646410
  0.1111111111111119  0.5555555555555547  0.6873699332646410
  0.4444444444444452  0.5555555555555547  0.6873699332646410
  0.7777777777777786  0.5555555555555547  0.6873699332646410
  0.1111111111111119  0.8888888888888881  0.6873699332646410
  0.4444444444444452  0.8888888888888881  0.6873699332646410
  0.7777777777777786  0.8888888888888881  0.6873699332646410
  0.2222222222222214  0.1111111111111119  0.4373699332646410
  0.5555555555555547  0.1111111111111119  0.4373699332646410
  0.8888888888888881  0.1111111111111119  0.4373699332646410
  0.2222222222222214  0.4444444444444452  0.4373699332646410
  0.5555555555555547  0.4444444444444452  0.4373699332646410
  0.8888888888888881  0.4444444444444452  0.4373699332646410
  0.2222222222222214  0.7777777777777786  0.4373699332646410
  0.5555555555555547  0.7777777777777786  0.4373699332646410
  0.8888888888888881  0.7777777777777786  0.4373699332646410
  0.2222222222222214  0.1111111111111119  0.9373699332646410
  0.5555555555555547  0.1111111111111119  0.9373699332646410
  0.8888888888888881  0.1111111111111119  0.9373699332646410
  0.2222222222222214  0.4444444444444452  0.9373699332646410
  0.5555555555555547  0.4444444444444452  0.9373699332646410
  0.8888888888888881  0.4444444444444452  0.9373699332646410
  0.2222222222222214  0.7777777777777786  0.9373699332646410
  0.5555555555555547  0.7777777777777786  0.9373699332646410
  0.8888888888888881  0.7777777777777786  0.9373699332646410
