generated by phonopy
   1.0
     5.9461559965372786  -10.2990442957329158    0.0000000000000000
     5.9461559965372786   10.2990442957329158    0.0000000000000000
     0.0000000000000000    0.0000000000000000   12.9990722629859583
Zn S
  36   36
Direct
  0.1111111111111119  0.2222222222222214  0.9999707098961577
  0.4444444444444452  0.2222222222222214  0.9999707098961577
  0.7777777777777786  0.2222222222222214  0.9999707098961577
  0.1111111111111119  0.5555555555555547  0.9999707098961577
  0.4444444444444452  0.5555555555555547  0.9999707098961577
  0.7777777777777786  0.5555555555555547  0.9999707098961577
  0.1111111111111119  0.8888888888888881  0.9999707098961577
  0.4444444444444452  0.8888888888888881  0.9999707098961577
  0.7777777777777786  0.8888888888888881  0.9999707098961577
  0.1111111111111119  0.2222222222222214  0.4999707098961577
  0.4444444444444452  0.2222222222222214  0.4999707098961577
  0.7777777777777786  0.2222222222222214  0.4999707098961577
  0.1111111111111119  0.5555555555555547  0.4999707098961577
  0.4444444444444452  0.5555555555555547  0.4999707098961577
  0.7777777777777786  0.5555555555555547  0.4999707098961577
  0.1111111111111119  0.8888888888888881  0.4999707098961577
  0.4444444444444452  0.8888888888888881  0.4999707098961577
  0.7777777777777786  0.8888888888888881  0.4999707098961577
  0.2222222222222214  0.1111111111111119  0.2499707098961576
  0.5555555555555547  0.1111111111111119  0.2499707098961576
  0.8888888888888881  0.1111111111111119  0.2499707098961576
  0.2222222222222214  0.4444444444444452  0.2499707098961576
  0.5555555555555547  0.4444444444444452  0.2499707098961576
  0.8888888888888881  0.4444444444444452  0.2499707098961576
  0.2222222222222214  0.7777777777777786  0.2499707098961576
  0.5555555555555547  0.7777777777777786  0.2499707098961576
  0.8888888888888881  0.7777777777777786  0.2499707098961576
  0.2222222222222214  0.1111111111111119  0.7499707098961577
  0.5555555555555547  0.1111111111111119  0.7499707098961577
  0.8888888888888881  0.1111111111111119  0.7499707098961577
  0.2222222222222214  0.4444444444444452  0.7499707098961577
  0.5555555555555547  0.4444444444444452  0.7499707098961577
  0.8888888888888881  0.4444444444444452  0.7499707098961577
  0.2222222222222214  0.7777777777777786  0.7499707098961577
  0.5555555555555547  0.7777777777777786  0.7499707098961577
  0.8888888888888881  0.7777777777777786  0.7499707098961577
  0.1111111111111119  0.2222222222222214  0.1875292901038423
  0.4444444444444452  0.2222222222222214  0.1875292901038423
  0.7777777777777786  0.2222222222222214  0.1875292901038423
  0.1111111111111119  0.5555555555555547  0.1875292901038423
  0.4444444444444452  0.5555555555555547  0.1875292901038423
  0.7777777777777786  0.5555555555555547  0.1875292901038423
  0.1111111111111119  0.8888888888888881  0.1875292901038423
  0.4444444444444452  0.8888888888888881  0.1875292901038423
  0.7777777777777786  0.8888888888888881  0.1875292901038423
  0.1111111111111119  0.2222222222222214  0.6875292901038423
  0.4444444444444452  0.2222222222222214  0.6875292901038423
  0.7777777777777786  0.2222222222222214  0.6875292901038423
  0.1111111111111119  0.5555555555555547  0.6875292901038423
  0.4444444444444452  0.5555555555555547  0.6875292901038423
  0.7777777777777786  0.5555555555555547  0.6875292901038423
  0.1111111111111119  0.8888888888888881  0.6875292901038423
  0.4444444444444452  0.8888888888888881  0.6875292901038423
  0.7777777777777786  0.8888888888888881  0.6875292901038423
  0.2222222222222214  0.1111111111111119  0.4375292901038424
  0.5555555555555547  0.1111111111111119  0.4375292901038424
  0.8888888888888881  0.1111111111111119  0.4375292901038424
  0.2222222222222214  0.4444444444444452  0.4375292901038424
  0.5555555555555547  0.4444444444444452  0.4375292901038424
  0.8888888888888881  0.4444444444444452  0.4375292901038424
  0.2222222222222214  0.7777777777777786  0.4375292901038424
  0.5555555555555547  0.7777777777777786  0.4375292901038424
  0.8888888888888881  0.7777777777777786  0.4375292901038424
  0.2222222222222214  0.1111111111111119  0.9375292901038423
  0.5555555555555547  0.1111111111111119  0.9375292901038423
  0.8888888888888881  0.1111111111111119  0.9375292901038423
  0.2222222222222214  0.4444444444444452  0.9375292901038423
  0.5555555555555547  0.4444444444444452  0.9375292901038423
  0.8888888888888881  0.4444444444444452  0.9375292901038423
  0.2222222222222214  0.7777777777777786  0.9375292901038423
  0.5555555555555547  0.7777777777777786  0.9375292901038423
  0.8888888888888881  0.7777777777777786  0.9375292901038423
