generated by phonopy
   1.0
     5.5420483074522213   -9.5991092465083483    0.0000000000000000
     5.5420483074522213    9.5991092465083483    0.0000000000000000
     0.0000000000000000    0.0000000000000000   12.1156401674432228
Zn S
  36   36
Direct
  0.1111111111111119  0.2222222222222214  0.0002747025472960
  0.4444444444444452  0.2222222222222214  0.0002747025472960
  0.7777777777777786  0.2222222222222214  0.0002747025472960
  0.1111111111111119  0.5555555555555547  0.0002747025472960
  0.4444444444444452  0.5555555555555547  0.0002747025472960
  0.7777777777777786  0.5555555555555547  0.0002747025472960
  0.1111111111111119  0.8888888888888881  0.0002747025472960
  0.4444444444444452  0.8888888888888881  0.0002747025472960
  0.7777777777777786  0.8888888888888881  0.0002747025472960
  0.1111111111111119  0.2222222222222214  0.5002747025472960
  0.4444444444444452  0.2222222222222214  0.5002747025472960
  0.7777777777777786  0.2222222222222214  0.5002747025472960
  0.1111111111111119  0.5555555555555547  0.5002747025472960
  0.4444444444444452  0.5555555555555547  0.5002747025472960
  0.7777777777777786  0.5555555555555547  0.5002747025472960
  0.1111111111111119  0.8888888888888881  0.5002747025472960
  0.4444444444444452  0.8888888888888881  0.5002747025472960
  0.7777777777777786  0.8888888888888881  0.5002747025472960
  0.2222222222222214  0.1111111111111119  0.2502747025472961
  0.5555555555555547  0.1111111111111119  0.2502747025472961
  0.8888888888888881  0.1111111111111119  0.2502747025472961
  0.2222222222222214  0.4444444444444452  0.2502747025472961
  0.5555555555555547  0.4444444444444452  0.2502747025472961
  0.8888888888888881  0.4444444444444452  0.2502747025472961
  0.2222222222222214  0.7777777777777786  0.2502747025472961
  0.5555555555555547  0.7777777777777786  0.2502747025472961
  0.8888888888888881  0.7777777777777786  0.2502747025472961
  0.2222222222222214  0.1111111111111119  0.7502747025472960
  0.5555555555555547  0.1111111111111119  0.7502747025472960
  0.8888888888888881  0.1111111111111119  0.7502747025472960
  0.2222222222222214  0.4444444444444452  0.7502747025472960
  0.5555555555555547  0.4444444444444452  0.7502747025472960
  0.8888888888888881  0.4444444444444452  0.7502747025472960
  0.2222222222222214  0.7777777777777786  0.7502747025472960
  0.5555555555555547  0.7777777777777786  0.7502747025472960
  0.8888888888888881  0.7777777777777786  0.7502747025472960
  0.1111111111111119  0.2222222222222214  0.1872252974527039
  0.4444444444444452  0.2222222222222214  0.1872252974527039
  0.7777777777777786  0.2222222222222214  0.1872252974527039
  0.1111111111111119  0.5555555555555547  0.1872252974527039
  0.4444444444444452  0.5555555555555547  0.1872252974527039
  0.7777777777777786  0.5555555555555547  0.1872252974527039
  0.1111111111111119  0.8888888888888881  0.1872252974527039
  0.4444444444444452  0.8888888888888881  0.1872252974527039
  0.7777777777777786  0.8888888888888881  0.1872252974527039
  0.1111111111111119  0.2222222222222214  0.6872252974527040
  0.4444444444444452  0.2222222222222214  0.6872252974527040
  0.7777777777777786  0.2222222222222214  0.6872252974527040
  0.1111111111111119  0.5555555555555547  0.6872252974527040
  0.4444444444444452  0.5555555555555547  0.6872252974527040
  0.7777777777777786  0.5555555555555547  0.6872252974527040
  0.1111111111111119  0.8888888888888881  0.6872252974527040
  0.4444444444444452  0.8888888888888881  0.6872252974527040
  0.7777777777777786  0.8888888888888881  0.6872252974527040
  0.2222222222222214  0.1111111111111119  0.4372252974527039
  0.5555555555555547  0.1111111111111119  0.4372252974527039
  0.8888888888888881  0.1111111111111119  0.4372252974527039
  0.2222222222222214  0.4444444444444452  0.4372252974527039
  0.5555555555555547  0.4444444444444452  0.4372252974527039
  0.8888888888888881  0.4444444444444452  0.4372252974527039
  0.2222222222222214  0.7777777777777786  0.4372252974527039
  0.5555555555555547  0.7777777777777786  0.4372252974527039
  0.8888888888888881  0.7777777777777786  0.4372252974527039
  0.2222222222222214  0.1111111111111119  0.9372252974527040
  0.5555555555555547  0.1111111111111119  0.9372252974527040
  0.8888888888888881  0.1111111111111119  0.9372252974527040
  0.2222222222222214  0.4444444444444452  0.9372252974527040
  0.5555555555555547  0.4444444444444452  0.9372252974527040
  0.8888888888888881  0.4444444444444452  0.9372252974527040
  0.2222222222222214  0.7777777777777786  0.9372252974527040
  0.5555555555555547  0.7777777777777786  0.9372252974527040
  0.8888888888888881  0.7777777777777786  0.9372252974527040
