Si O                                    
   1.0000000000000000     
     2.4582789037025461   -4.2578639603875290    0.0000000000000000
     2.4582789037025461    4.2578639603875290    0.0000000000000000
     0.0000000000000000    0.0000000000000000    5.4316252501287119
   Si   O 
     3     6
Direct
  0.0000000000000000  0.4662790158137090  0.3333333333333357
  0.5337209841862910  0.5337209841862910 -0.0000000000000000
  0.4662790158137090 -0.0000000000000000  0.6666666666666643
  0.1370961801852500  0.7268051750357115  0.5525690502938988
  0.5897089948504539  0.8629038198147498  0.8859023836272345
  0.2731948249642888  0.4102910051495460  0.2192357169605702
  0.4102910051495460  0.2731948249642888  0.7807642830394298
  0.8629038198147498  0.5897089948504539  0.1140976163727655
  0.7268051750357115  0.1370961801852500  0.4474309497060941

  0.00000000E+00  0.00000000E+00  0.00000000E+00
  0.00000000E+00  0.00000000E+00  0.00000000E+00
  0.00000000E+00  0.00000000E+00  0.00000000E+00
  0.00000000E+00  0.00000000E+00  0.00000000E+00
  0.00000000E+00  0.00000000E+00  0.00000000E+00
  0.00000000E+00  0.00000000E+00  0.00000000E+00
  0.00000000E+00  0.00000000E+00  0.00000000E+00
  0.00000000E+00  0.00000000E+00  0.00000000E+00
  0.00000000E+00  0.00000000E+00  0.00000000E+00
