Zn S 
 1.0000000000000000
     2.0205384454252893   -3.4996752461228358   -0.0000000000000000
     2.0205384454252893    3.4996752461228358    0.0000000000000000
     0.0000000000000000    0.0000000000000000    6.6257407165705127
 Zn  S  
   2   2
Cartesian
  2.0205384454252897  1.1665584153742619  0.0017235769286824
  2.0205384454252897 -1.1665584153742623  3.3145939352139395
  2.0205384454252897  1.1665584153742619  2.4829291917852596
  2.0205384454252897 -1.1665584153742623  5.7957995500705151
Cartesian
  0.0000000000000000  0.0000000000000000  0.0000000000000000
  0.0000000000000000  0.0000000000000000  0.0000000000000000
  0.0000000000000000  0.0000000000000000  0.0000000000000000
  0.0000000000000000  0.0000000000000000  0.0000000000000000
