Zn S                                    
   1.0000000000000000     
     1.8665926591071718   -3.2330333226087147    0.0000000000000000
     1.8665926591071718    3.2330333226087147    0.0000000000000000
     0.0000000000000000    0.0000000000000000    6.1209223762603777
   Zn   S 
     2     2
Direct
  0.3333333333333357  0.6666666666666643  0.0004842626458388
  0.6666666666666643  0.3333333333333357  0.5004842626458388
  0.3333333333333357  0.6666666666666643  0.3745157373541612
  0.6666666666666643  0.3333333333333357  0.8745157373541612

  0.00000000E+00  0.00000000E+00  0.00000000E+00
  0.00000000E+00  0.00000000E+00  0.00000000E+00
  0.00000000E+00  0.00000000E+00  0.00000000E+00
  0.00000000E+00  0.00000000E+00  0.00000000E+00
