generated by phonopy
   1.0
     5.5997779773215157   -9.6990999678261431    0.0000000000000000
     5.5997779773215157    9.6990999678261431    0.0000000000000000
     0.0000000000000000    0.0000000000000000   12.2418447525207554
Zn S
  36   36
Direct
  0.1111111111111119  0.2222222222222214  0.0002421313229194
  0.4444444444444452  0.2222222222222214  0.0002421313229194
  0.7777777777777786  0.2222222222222214  0.0002421313229194
  0.1111111111111119  0.5555555555555547  0.0002421313229194
  0.4444444444444452  0.5555555555555547  0.0002421313229194
  0.7777777777777786  0.5555555555555547  0.0002421313229194
  0.1111111111111119  0.8888888888888881  0.0002421313229194
  0.4444444444444452  0.8888888888888881  0.0002421313229194
  0.7777777777777786  0.8888888888888881  0.0002421313229194
  0.1111111111111119  0.2222222222222214  0.5002421313229194
  0.4444444444444452  0.2222222222222214  0.5002421313229194
  0.7777777777777786  0.2222222222222214  0.5002421313229194
  0.1111111111111119  0.5555555555555547  0.5002421313229194
  0.4444444444444452  0.5555555555555547  0.5002421313229194
  0.7777777777777786  0.5555555555555547  0.5002421313229194
  0.1111111111111119  0.8888888888888881  0.5002421313229194
  0.4444444444444452  0.8888888888888881  0.5002421313229194
  0.7777777777777786  0.8888888888888881  0.5002421313229194
  0.2222222222222214  0.1111111111111119  0.2502421313229194
  0.5555555555555547  0.1111111111111119  0.2502421313229194
  0.8888888888888881  0.1111111111111119  0.2502421313229194
  0.2222222222222214  0.4444444444444452  0.2502421313229194
  0.5555555555555547  0.4444444444444452  0.2502421313229194
  0.8888888888888881  0.4444444444444452  0.2502421313229194
  0.2222222222222214  0.7777777777777786  0.2502421313229194
  0.5555555555555547  0.7777777777777786  0.2502421313229194
  0.8888888888888881  0.7777777777777786  0.2502421313229194
  0.2222222222222214  0.1111111111111119  0.7502421313229194
  0.5555555555555547  0.1111111111111119  0.7502421313229194
  0.8888888888888881  0.1111111111111119  0.7502421313229194
  0.2222222222222214  0.4444444444444452  0.7502421313229194
  0.5555555555555547  0.4444444444444452  0.7502421313229194
  0.8888888888888881  0.4444444444444452  0.7502421313229194
  0.2222222222222214  0.7777777777777786  0.7502421313229194
  0.5555555555555547  0.7777777777777786  0.7502421313229194
  0.8888888888888881  0.7777777777777786  0.7502421313229194
  0.1111111111111119  0.2222222222222214  0.1872578686770806
  0.4444444444444452  0.2222222222222214  0.1872578686770806
  0.7777777777777786  0.2222222222222214  0.1872578686770806
  0.1111111111111119  0.5555555555555547  0.1872578686770806
  0.4444444444444452  0.5555555555555547  0.1872578686770806
  0.7777777777777786  0.5555555555555547  0.1872578686770806
  0.1111111111111119  0.8888888888888881  0.1872578686770806
  0.4444444444444452  0.8888888888888881  0.1872578686770806
  0.7777777777777786  0.8888888888888881  0.1872578686770806
  0.1111111111111119  0.2222222222222214  0.6872578686770806
  0.4444444444444452  0.2222222222222214  0.6872578686770806
  0.7777777777777786  0.2222222222222214  0.6872578686770806
  0.1111111111111119  0.5555555555555547  0.6872578686770806
  0.4444444444444452  0.5555555555555547  0.6872578686770806
  0.7777777777777786  0.5555555555555547  0.6872578686770806
  0.1111111111111119  0.8888888888888881  0.6872578686770806
  0.4444444444444452  0.8888888888888881  0.6872578686770806
  0.7777777777777786  0.8888888888888881  0.6872578686770806
  0.2222222222222214  0.1111111111111119  0.4372578686770806
  0.5555555555555547  0.1111111111111119  0.4372578686770806
  0.8888888888888881  0.1111111111111119  0.4372578686770806
  0.2222222222222214  0.4444444444444452  0.4372578686770806
  0.5555555555555547  0.4444444444444452  0.4372578686770806
  0.8888888888888881  0.4444444444444452  0.4372578686770806
  0.2222222222222214  0.7777777777777786  0.4372578686770806
  0.5555555555555547  0.7777777777777786  0.4372578686770806
  0.8888888888888881  0.7777777777777786  0.4372578686770806
  0.2222222222222214  0.1111111111111119  0.9372578686770806
  0.5555555555555547  0.1111111111111119  0.9372578686770806
  0.8888888888888881  0.1111111111111119  0.9372578686770806
  0.2222222222222214  0.4444444444444452  0.9372578686770806
  0.5555555555555547  0.4444444444444452  0.9372578686770806
  0.8888888888888881  0.4444444444444452  0.9372578686770806
  0.2222222222222214  0.7777777777777786  0.9372578686770806
  0.5555555555555547  0.7777777777777786  0.9372578686770806
  0.8888888888888881  0.7777777777777786  0.9372578686770806
