Zn S                                    
   1.0000000000000000     
     1.8473494358174070   -3.1997030821694494    0.0000000000000000
     1.8473494358174070    3.1997030821694494    0.0000000000000000
     0.0000000000000000    0.0000000000000000    6.0578200837216114
   Zn   S 
     2     2
Direct
  0.3333333333333357  0.6666666666666643  0.0005494050945921
  0.6666666666666643  0.3333333333333357  0.5005494050945921
  0.3333333333333357  0.6666666666666643  0.3744505949054079
  0.6666666666666643  0.3333333333333357  0.8744505949054079

  0.00000000E+00  0.00000000E+00  0.00000000E+00
  0.00000000E+00  0.00000000E+00  0.00000000E+00
  0.00000000E+00  0.00000000E+00  0.00000000E+00
  0.00000000E+00  0.00000000E+00  0.00000000E+00
