Kpoints from vasprun.xml
0
Gamma
10 10 8

