Si3O6
1.0
      2.4582789      -4.2578640       0.0000000
      2.4582789       4.2578640       0.0000000
      0.0000000       0.0000000       5.4316253
  Si    O   
  3     6   
Direct
      0.0000000       0.4687982       0.3333333
      0.5312018       0.5312018       0.0000000
      0.4687982       0.0000000       0.6666667
      0.1445384       0.7314398       0.5478196
      0.5869014       0.8554616       0.8811529
      0.2685602       0.4130986       0.2144863
      0.4130986       0.2685602       0.7855137
      0.8554616       0.5869014       0.1188471
      0.7314398       0.1445384       0.4521804
