generated by phonopy
   1.0
     5.8306966567986906  -10.0990628530973261    0.0000000000000000
     5.8306966567986906   10.0990628530973261    0.0000000000000000
     0.0000000000000000    0.0000000000000000   12.7466630928308913
Zn S
  36   36
Direct
  0.1111111111111119  0.2222222222222214  0.0000759005479642
  0.4444444444444452  0.2222222222222214  0.0000759005479642
  0.7777777777777786  0.2222222222222214  0.0000759005479642
  0.1111111111111119  0.5555555555555547  0.0000759005479642
  0.4444444444444452  0.5555555555555547  0.0000759005479642
  0.7777777777777786  0.5555555555555547  0.0000759005479642
  0.1111111111111119  0.8888888888888881  0.0000759005479642
  0.4444444444444452  0.8888888888888881  0.0000759005479642
  0.7777777777777786  0.8888888888888881  0.0000759005479642
  0.1111111111111119  0.2222222222222214  0.5000759005479642
  0.4444444444444452  0.2222222222222214  0.5000759005479642
  0.7777777777777786  0.2222222222222214  0.5000759005479642
  0.1111111111111119  0.5555555555555547  0.5000759005479642
  0.4444444444444452  0.5555555555555547  0.5000759005479642
  0.7777777777777786  0.5555555555555547  0.5000759005479642
  0.1111111111111119  0.8888888888888881  0.5000759005479642
  0.4444444444444452  0.8888888888888881  0.5000759005479642
  0.7777777777777786  0.8888888888888881  0.5000759005479642
  0.2222222222222214  0.1111111111111119  0.2500759005479643
  0.5555555555555547  0.1111111111111119  0.2500759005479643
  0.8888888888888881  0.1111111111111119  0.2500759005479643
  0.2222222222222214  0.4444444444444452  0.2500759005479643
  0.5555555555555547  0.4444444444444452  0.2500759005479643
  0.8888888888888881  0.4444444444444452  0.2500759005479643
  0.2222222222222214  0.7777777777777786  0.2500759005479643
  0.5555555555555547  0.7777777777777786  0.2500759005479643
  0.8888888888888881  0.7777777777777786  0.2500759005479643
  0.2222222222222214  0.1111111111111119  0.7500759005479642
  0.5555555555555547  0.1111111111111119  0.7500759005479642
  0.8888888888888881  0.1111111111111119  0.7500759005479642
  0.2222222222222214  0.4444444444444452  0.7500759005479642
  0.5555555555555547  0.4444444444444452  0.7500759005479642
  0.8888888888888881  0.4444444444444452  0.7500759005479642
  0.2222222222222214  0.7777777777777786  0.7500759005479642
  0.5555555555555547  0.7777777777777786  0.7500759005479642
  0.8888888888888881  0.7777777777777786  0.7500759005479642
  0.1111111111111119  0.2222222222222214  0.1874240994520358
  0.4444444444444452  0.2222222222222214  0.1874240994520358
  0.7777777777777786  0.2222222222222214  0.1874240994520358
  0.1111111111111119  0.5555555555555547  0.1874240994520358
  0.4444444444444452  0.5555555555555547  0.1874240994520358
  0.7777777777777786  0.5555555555555547  0.1874240994520358
  0.1111111111111119  0.8888888888888881  0.1874240994520358
  0.4444444444444452  0.8888888888888881  0.1874240994520358
  0.7777777777777786  0.8888888888888881  0.1874240994520358
  0.1111111111111119  0.2222222222222214  0.6874240994520358
  0.4444444444444452  0.2222222222222214  0.6874240994520358
  0.7777777777777786  0.2222222222222214  0.6874240994520358
  0.1111111111111119  0.5555555555555547  0.6874240994520358
  0.4444444444444452  0.5555555555555547  0.6874240994520358
  0.7777777777777786  0.5555555555555547  0.6874240994520358
  0.1111111111111119  0.8888888888888881  0.6874240994520358
  0.4444444444444452  0.8888888888888881  0.6874240994520358
  0.7777777777777786  0.8888888888888881  0.6874240994520358
  0.2222222222222214  0.1111111111111119  0.4374240994520357
  0.5555555555555547  0.1111111111111119  0.4374240994520357
  0.8888888888888881  0.1111111111111119  0.4374240994520357
  0.2222222222222214  0.4444444444444452  0.4374240994520357
  0.5555555555555547  0.4444444444444452  0.4374240994520357
  0.8888888888888881  0.4444444444444452  0.4374240994520357
  0.2222222222222214  0.7777777777777786  0.4374240994520357
  0.5555555555555547  0.7777777777777786  0.4374240994520357
  0.8888888888888881  0.7777777777777786  0.4374240994520357
  0.2222222222222214  0.1111111111111119  0.9374240994520358
  0.5555555555555547  0.1111111111111119  0.9374240994520358
  0.8888888888888881  0.1111111111111119  0.9374240994520358
  0.2222222222222214  0.4444444444444452  0.9374240994520358
  0.5555555555555547  0.4444444444444452  0.9374240994520358
  0.8888888888888881  0.4444444444444452  0.9374240994520358
  0.2222222222222214  0.7777777777777786  0.9374240994520358
  0.5555555555555547  0.7777777777777786  0.9374240994520358
  0.8888888888888881  0.7777777777777786  0.9374240994520358
