Si3 O6                                  
   1.0000000000000000     
     2.4582789037025461   -4.2578639603875290    0.0000000000000000
     2.4582789037025461    4.2578639603875290    0.0000000000000000
     0.0000000000000000    0.0000000000000000    5.4316252501287119
   Si   O 
     3     6
Direct
  0.0000000000000000  0.4687982299999973  0.3333333333333357
  0.5312017700000027  0.5312017700000027  0.0000000000000000
  0.4687982299999973  0.0000000000000000  0.6666666666666643
  0.1445383599999985  0.7314397900000031  0.5478195999999969
  0.5869014299999975  0.8554616400000015  0.8811529333333326
  0.2685602099999969  0.4130985700000025  0.2144862666666683
  0.4130985700000025  0.2685602099999969  0.7855137333333317
  0.8554616400000015  0.5869014299999975  0.1188470666666674
  0.7314397900000031  0.1445383599999985  0.4521803999999960

  0.00000000E+00  0.00000000E+00  0.00000000E+00
  0.00000000E+00  0.00000000E+00  0.00000000E+00
  0.00000000E+00  0.00000000E+00  0.00000000E+00
  0.00000000E+00  0.00000000E+00  0.00000000E+00
  0.00000000E+00  0.00000000E+00  0.00000000E+00
  0.00000000E+00  0.00000000E+00  0.00000000E+00
  0.00000000E+00  0.00000000E+00  0.00000000E+00
  0.00000000E+00  0.00000000E+00  0.00000000E+00
  0.00000000E+00  0.00000000E+00  0.00000000E+00
