Zn S                                    
   1.0000000000000000     
     1.9243223289764657   -3.3330240439265100   -0.0000000000000000
     1.9243223289764657    3.3330240439265100    0.0000000000000000
     0.0000000000000000    0.0000000000000000    6.3102292538766784
   Zn   S 
     2     2
Direct
  0.3333333333333357  0.6666666666666643  0.0002601334707180
  0.6666666666666643  0.3333333333333357  0.5002601334707180
  0.3333333333333357  0.6666666666666643  0.3747398665292820
  0.6666666666666643  0.3333333333333357  0.8747398665292820

  0.00000000E+00  0.00000000E+00  0.00000000E+00
  0.00000000E+00  0.00000000E+00  0.00000000E+00
  0.00000000E+00  0.00000000E+00  0.00000000E+00
  0.00000000E+00  0.00000000E+00  0.00000000E+00
