generated by phonopy
   1.0
     5.7086947006412281   -9.8877492664098092    0.0000000000000000
     5.7086947006412281    9.8877492664098092    0.0000000000000000
     0.0000000000000000    0.0000000000000000   12.4759632600000003
Zn S
  36   36
Direct
  0.1111111111111119  0.2222222222222214  0.0001557537574095
  0.4444444444444452  0.2222222222222214  0.0001557537574095
  0.7777777777777786  0.2222222222222214  0.0001557537574095
  0.1111111111111119  0.5555555555555547  0.0001557537574095
  0.4444444444444452  0.5555555555555547  0.0001557537574095
  0.7777777777777786  0.5555555555555547  0.0001557537574095
  0.1111111111111119  0.8888888888888881  0.0001557537574095
  0.4444444444444452  0.8888888888888881  0.0001557537574095
  0.7777777777777786  0.8888888888888881  0.0001557537574095
  0.1111111111111119  0.2222222222222214  0.5001557537574095
  0.4444444444444452  0.2222222222222214  0.5001557537574095
  0.7777777777777786  0.2222222222222214  0.5001557537574095
  0.1111111111111119  0.5555555555555547  0.5001557537574095
  0.4444444444444452  0.5555555555555547  0.5001557537574095
  0.7777777777777786  0.5555555555555547  0.5001557537574095
  0.1111111111111119  0.8888888888888881  0.5001557537574095
  0.4444444444444452  0.8888888888888881  0.5001557537574095
  0.7777777777777786  0.8888888888888881  0.5001557537574095
  0.2222222222222214  0.1111111111111119  0.2501557537574096
  0.5555555555555547  0.1111111111111119  0.2501557537574096
  0.8888888888888881  0.1111111111111119  0.2501557537574096
  0.2222222222222214  0.4444444444444452  0.2501557537574096
  0.5555555555555547  0.4444444444444452  0.2501557537574096
  0.8888888888888881  0.4444444444444452  0.2501557537574096
  0.2222222222222214  0.7777777777777786  0.2501557537574096
  0.5555555555555547  0.7777777777777786  0.2501557537574096
  0.8888888888888881  0.7777777777777786  0.2501557537574096
  0.2222222222222214  0.1111111111111119  0.7501557537574095
  0.5555555555555547  0.1111111111111119  0.7501557537574095
  0.8888888888888881  0.1111111111111119  0.7501557537574095
  0.2222222222222214  0.4444444444444452  0.7501557537574095
  0.5555555555555547  0.4444444444444452  0.7501557537574095
  0.8888888888888881  0.4444444444444452  0.7501557537574095
  0.2222222222222214  0.7777777777777786  0.7501557537574095
  0.5555555555555547  0.7777777777777786  0.7501557537574095
  0.8888888888888881  0.7777777777777786  0.7501557537574095
  0.1111111111111119  0.2222222222222214  0.1873442462425905
  0.4444444444444452  0.2222222222222214  0.1873442462425905
  0.7777777777777786  0.2222222222222214  0.1873442462425905
  0.1111111111111119  0.5555555555555547  0.1873442462425905
  0.4444444444444452  0.5555555555555547  0.1873442462425905
  0.7777777777777786  0.5555555555555547  0.1873442462425905
  0.1111111111111119  0.8888888888888881  0.1873442462425905
  0.4444444444444452  0.8888888888888881  0.1873442462425905
  0.7777777777777786  0.8888888888888881  0.1873442462425905
  0.1111111111111119  0.2222222222222214  0.6873442462425905
  0.4444444444444452  0.2222222222222214  0.6873442462425905
  0.7777777777777786  0.2222222222222214  0.6873442462425905
  0.1111111111111119  0.5555555555555547  0.6873442462425905
  0.4444444444444452  0.5555555555555547  0.6873442462425905
  0.7777777777777786  0.5555555555555547  0.6873442462425905
  0.1111111111111119  0.8888888888888881  0.6873442462425905
  0.4444444444444452  0.8888888888888881  0.6873442462425905
  0.7777777777777786  0.8888888888888881  0.6873442462425905
  0.2222222222222214  0.1111111111111119  0.4373442462425904
  0.5555555555555547  0.1111111111111119  0.4373442462425904
  0.8888888888888881  0.1111111111111119  0.4373442462425904
  0.2222222222222214  0.4444444444444452  0.4373442462425904
  0.5555555555555547  0.4444444444444452  0.4373442462425904
  0.8888888888888881  0.4444444444444452  0.4373442462425904
  0.2222222222222214  0.7777777777777786  0.4373442462425904
  0.5555555555555547  0.7777777777777786  0.4373442462425904
  0.8888888888888881  0.7777777777777786  0.4373442462425904
  0.2222222222222214  0.1111111111111119  0.9373442462425905
  0.5555555555555547  0.1111111111111119  0.9373442462425905
  0.8888888888888881  0.1111111111111119  0.9373442462425905
  0.2222222222222214  0.4444444444444452  0.9373442462425905
  0.5555555555555547  0.4444444444444452  0.9373442462425905
  0.8888888888888881  0.4444444444444452  0.9373442462425905
  0.2222222222222214  0.7777777777777786  0.9373442462425905
  0.5555555555555547  0.7777777777777786  0.9373442462425905
  0.8888888888888881  0.7777777777777786  0.9373442462425905
