Si3 O6                                  
   1.0000000000000000     
     2.5059159892399521   -4.3403738128628166   -0.0000000000000000
     2.5059159892399521    4.3403738128628166    0.0000000000000000
     0.0000000000000000    0.0000000000000000    5.5040628427168619
   Si   O 
     3     6
Direct
 -0.0000000000000000  0.4749817891400255  0.3333333333333357
  0.5250182108599754  0.5250182108599754  0.0000000000000000
  0.4749817891400255 -0.0000000000000000  0.6666666666666643
  0.1561214850912628  0.7414916594960159  0.5406579017420963
  0.5853701744047461  0.8438785149087376  0.8739912350754320
  0.2585083405039842  0.4146298255952541  0.2073245684087681
  0.4146298255952541  0.2585083405039842  0.7926754315912323
  0.8438785149087376  0.5853701744047461  0.1260087649245676
  0.7414916594960159  0.1561214850912628  0.4593420982578960

  0.00000000E+00  0.00000000E+00  0.00000000E+00
  0.00000000E+00  0.00000000E+00  0.00000000E+00
  0.00000000E+00  0.00000000E+00  0.00000000E+00
  0.00000000E+00  0.00000000E+00  0.00000000E+00
  0.00000000E+00  0.00000000E+00  0.00000000E+00
  0.00000000E+00  0.00000000E+00  0.00000000E+00
  0.00000000E+00  0.00000000E+00  0.00000000E+00
  0.00000000E+00  0.00000000E+00  0.00000000E+00
  0.00000000E+00  0.00000000E+00  0.00000000E+00
