Si3 O6                                  
   1.0000000000000000     
     2.4582789037025461   -4.2578639603875290    0.0000000000000000
     2.4582789037025461    4.2578639603875290    0.0000000000000000
     0.0000000000000000    0.0000000000000000    5.4316252501287119
   Si   O 
     3     6
Direct
  0.0000000000000000  0.4662658512202701  0.3333333333333357
  0.5337341487797301  0.5337341487797301 -0.0000000000000000
  0.4662658512202701 -0.0000000000000000  0.6666666666666643
  0.1371028009683000  0.7267693340761646  0.5525745959747210
  0.5896665331078574  0.8628971990317000  0.8859079293080567
  0.2732306659238353  0.4103334668921427  0.2192412626413924
  0.4103334668921427  0.2732306659238353  0.7807587373586076
  0.8628971990317000  0.5896665331078574  0.1140920706919434
  0.7267693340761646  0.1371028009683000  0.4474254040252720

  0.00000000E+00  0.00000000E+00  0.00000000E+00
  0.00000000E+00  0.00000000E+00  0.00000000E+00
  0.00000000E+00  0.00000000E+00  0.00000000E+00
  0.00000000E+00  0.00000000E+00  0.00000000E+00
  0.00000000E+00  0.00000000E+00  0.00000000E+00
  0.00000000E+00  0.00000000E+00  0.00000000E+00
  0.00000000E+00  0.00000000E+00  0.00000000E+00
  0.00000000E+00  0.00000000E+00  0.00000000E+00
  0.00000000E+00  0.00000000E+00  0.00000000E+00
