generated by phonopy                    
   1.00000000000000     
     3.8057964670941522   -6.5918328442732061    0.0000000000000000
     3.8057964670941522    6.5918328442732061    0.0000000000000000
     0.0000000000000000    0.0000000000000000    6.2379816300000002
   Zn   S 
     8     8
Direct
  0.1666666666666714  0.3333333333333286  0.0003115075148159
  0.6666666666666714  0.3333333333333286  0.0003115075148159
  0.1666666666666714  0.8333333333333286  0.0003115075148159
  0.6666666666666714  0.8333333333333286  0.0003115075148159
  0.3333333333333286  0.1666666666666714  0.5003115075148159
  0.8333333333333286  0.1666666666666714  0.5003115075148159
  0.3333333333333286  0.6666666666666714  0.5003115075148159
  0.8333333333333286  0.6666666666666714  0.5003115075148159
  0.1666666666666714  0.3333333333333286  0.3746884924851841
  0.6666666666666714  0.3333333333333286  0.3746884924851841
  0.1666666666666714  0.8333333333333286  0.3746884924851841
  0.6666666666666714  0.8333333333333286  0.3746884924851841
  0.3333333333333286  0.1666666666666714  0.8746884924851841
  0.8333333333333286  0.1666666666666714  0.8746884924851841
  0.3333333333333286  0.6666666666666714  0.8746884924851841
  0.8333333333333286  0.6666666666666714  0.8746884924851841
 
  0.00000000E+00  0.00000000E+00  0.00000000E+00
  0.00000000E+00  0.00000000E+00  0.00000000E+00
  0.00000000E+00  0.00000000E+00  0.00000000E+00
  0.00000000E+00  0.00000000E+00  0.00000000E+00
  0.00000000E+00  0.00000000E+00  0.00000000E+00
  0.00000000E+00  0.00000000E+00  0.00000000E+00
  0.00000000E+00  0.00000000E+00  0.00000000E+00
  0.00000000E+00  0.00000000E+00  0.00000000E+00
  0.00000000E+00  0.00000000E+00  0.00000000E+00
  0.00000000E+00  0.00000000E+00  0.00000000E+00
  0.00000000E+00  0.00000000E+00  0.00000000E+00
  0.00000000E+00  0.00000000E+00  0.00000000E+00
  0.00000000E+00  0.00000000E+00  0.00000000E+00
  0.00000000E+00  0.00000000E+00  0.00000000E+00
  0.00000000E+00  0.00000000E+00  0.00000000E+00
  0.00000000E+00  0.00000000E+00  0.00000000E+00
