generated by phonopy
   1.0
     3.8057964670941522   -6.5918328442732061    0.0000000000000000
     3.8057964670941522    6.5918328442732061    0.0000000000000000
     0.0000000000000000    0.0000000000000000    6.2379816300000002
Zn S
   8    8
Direct
  0.1666666666666679  0.3333333333333321  0.0003115075148190
  0.6666666666666679  0.3333333333333321  0.0003115075148190
  0.1666666666666679  0.8333333333333321  0.0003115075148190
  0.6666666666666679  0.8333333333333321  0.0003115075148190
  0.3333333333333321  0.1666666666666679  0.5003115075148191
  0.8333333333333321  0.1666666666666679  0.5003115075148191
  0.3333333333333321  0.6666666666666679  0.5003115075148191
  0.8333333333333321  0.6666666666666679  0.5003115075148191
  0.1666666666666679  0.3333333333333321  0.3746884924851810
  0.6666666666666679  0.3333333333333321  0.3746884924851810
  0.1666666666666679  0.8333333333333321  0.3746884924851810
  0.6666666666666679  0.8333333333333321  0.3746884924851810
  0.3333333333333321  0.1666666666666679  0.8746884924851809
  0.8333333333333321  0.1666666666666679  0.8746884924851809
  0.3333333333333321  0.6666666666666679  0.8746884924851809
  0.8333333333333321  0.6666666666666679  0.8746884924851809
