generated by phonopy
   1.0
     6.0616153362758673  -10.4990257383685073    0.0000000000000000
     6.0616153362758673   10.4990257383685073    0.0000000000000000
     0.0000000000000000    0.0000000000000000   13.2514814331410253
Zn S
  36   36
Direct
  0.1111111111111119  0.2222222222222214  0.9998397763285914
  0.4444444444444452  0.2222222222222214  0.9998397763285914
  0.7777777777777786  0.2222222222222214  0.9998397763285914
  0.1111111111111119  0.5555555555555547  0.9998397763285914
  0.4444444444444452  0.5555555555555547  0.9998397763285914
  0.7777777777777786  0.5555555555555547  0.9998397763285914
  0.1111111111111119  0.8888888888888881  0.9998397763285914
  0.4444444444444452  0.8888888888888881  0.9998397763285914
  0.7777777777777786  0.8888888888888881  0.9998397763285914
  0.1111111111111119  0.2222222222222214  0.4998397763285914
  0.4444444444444452  0.2222222222222214  0.4998397763285914
  0.7777777777777786  0.2222222222222214  0.4998397763285914
  0.1111111111111119  0.5555555555555547  0.4998397763285914
  0.4444444444444452  0.5555555555555547  0.4998397763285914
  0.7777777777777786  0.5555555555555547  0.4998397763285914
  0.1111111111111119  0.8888888888888881  0.4998397763285914
  0.4444444444444452  0.8888888888888881  0.4998397763285914
  0.7777777777777786  0.8888888888888881  0.4998397763285914
  0.2222222222222214  0.1111111111111119  0.2498397763285915
  0.5555555555555547  0.1111111111111119  0.2498397763285915
  0.8888888888888881  0.1111111111111119  0.2498397763285915
  0.2222222222222214  0.4444444444444452  0.2498397763285915
  0.5555555555555547  0.4444444444444452  0.2498397763285915
  0.8888888888888881  0.4444444444444452  0.2498397763285915
  0.2222222222222214  0.7777777777777786  0.2498397763285915
  0.5555555555555547  0.7777777777777786  0.2498397763285915
  0.8888888888888881  0.7777777777777786  0.2498397763285915
  0.2222222222222214  0.1111111111111119  0.7498397763285916
  0.5555555555555547  0.1111111111111119  0.7498397763285916
  0.8888888888888881  0.1111111111111119  0.7498397763285916
  0.2222222222222214  0.4444444444444452  0.7498397763285916
  0.5555555555555547  0.4444444444444452  0.7498397763285916
  0.8888888888888881  0.4444444444444452  0.7498397763285916
  0.2222222222222214  0.7777777777777786  0.7498397763285916
  0.5555555555555547  0.7777777777777786  0.7498397763285916
  0.8888888888888881  0.7777777777777786  0.7498397763285916
  0.1111111111111119  0.2222222222222214  0.1876602236714086
  0.4444444444444452  0.2222222222222214  0.1876602236714086
  0.7777777777777786  0.2222222222222214  0.1876602236714086
  0.1111111111111119  0.5555555555555547  0.1876602236714086
  0.4444444444444452  0.5555555555555547  0.1876602236714086
  0.7777777777777786  0.5555555555555547  0.1876602236714086
  0.1111111111111119  0.8888888888888881  0.1876602236714086
  0.4444444444444452  0.8888888888888881  0.1876602236714086
  0.7777777777777786  0.8888888888888881  0.1876602236714086
  0.1111111111111119  0.2222222222222214  0.6876602236714087
  0.4444444444444452  0.2222222222222214  0.6876602236714087
  0.7777777777777786  0.2222222222222214  0.6876602236714087
  0.1111111111111119  0.5555555555555547  0.6876602236714087
  0.4444444444444452  0.5555555555555547  0.6876602236714087
  0.7777777777777786  0.5555555555555547  0.6876602236714087
  0.1111111111111119  0.8888888888888881  0.6876602236714087
  0.4444444444444452  0.8888888888888881  0.6876602236714087
  0.7777777777777786  0.8888888888888881  0.6876602236714087
  0.2222222222222214  0.1111111111111119  0.4376602236714085
  0.5555555555555547  0.1111111111111119  0.4376602236714085
  0.8888888888888881  0.1111111111111119  0.4376602236714085
  0.2222222222222214  0.4444444444444452  0.4376602236714085
  0.5555555555555547  0.4444444444444452  0.4376602236714085
  0.8888888888888881  0.4444444444444452  0.4376602236714085
  0.2222222222222214  0.7777777777777786  0.4376602236714085
  0.5555555555555547  0.7777777777777786  0.4376602236714085
  0.8888888888888881  0.7777777777777786  0.4376602236714085
  0.2222222222222214  0.1111111111111119  0.9376602236714084
  0.5555555555555547  0.1111111111111119  0.9376602236714084
  0.8888888888888881  0.1111111111111119  0.9376602236714084
  0.2222222222222214  0.4444444444444452  0.9376602236714084
  0.5555555555555547  0.4444444444444452  0.9376602236714084
  0.8888888888888881  0.4444444444444452  0.9376602236714084
  0.2222222222222214  0.7777777777777786  0.9376602236714084
  0.5555555555555547  0.7777777777777786  0.9376602236714084
  0.8888888888888881  0.7777777777777786  0.9376602236714084
