Zn S 
 1.0000000000000000
     1.9628087755559951   -3.3996845248050400   -0.0000000000000000
     1.9628087755559951    3.3996845248050400    0.0000000000000000
     0.0000000000000000    0.0000000000000000    6.4364338389542120
 Zn  S  
   2   2
Cartesian
  1.9628087755559951  1.1332281749349975  0.0016743318735772
  1.9628087755559951 -1.1332281749349973  3.2198912513506839
  1.9628087755559951  1.1332281749349975  2.4119883577342520
  1.9628087755559951 -1.1332281749349973  5.6302052772113571
Cartesian
  0.0000000000000000  0.0000000000000000  0.0000000000000000
  0.0000000000000000  0.0000000000000000  0.0000000000000000
  0.0000000000000000  0.0000000000000000  0.0000000000000000
  0.0000000000000000  0.0000000000000000  0.0000000000000000
