Zn S 
 1.0000000000000000
     1.8281062125276424   -3.1663728417301842   -0.0000000000000000
     1.8281062125276424    3.1663728417301842    0.0000000000000000
     0.0000000000000000    0.0000000000000000    5.9947177911828442
 Zn  S  
   2   2
Cartesian
  1.8281062125276426  1.0554576139100464  0.0015594267449983
  1.8281062125276426 -1.0554576139100464  2.9989183223364213
  1.8281062125276426  1.0554576139100464  2.2464597449485679
  1.8281062125276426 -1.0554576139100464  5.2438186405399891
Cartesian
  0.0000000000000000  0.0000000000000000  0.0000000000000000
  0.0000000000000000  0.0000000000000000  0.0000000000000000
  0.0000000000000000  0.0000000000000000  0.0000000000000000
  0.0000000000000000  0.0000000000000000  0.0000000000000000
