generated by phonopy
   1.0
     5.4843186375829269   -9.4991185251905534    0.0000000000000000
     5.4843186375829269    9.4991185251905534    0.0000000000000000
     0.0000000000000000    0.0000000000000000   11.9894355823656884
Zn S
  36   36
Direct
  0.1111111111111119  0.2222222222222214  0.0003039331317322
  0.4444444444444452  0.2222222222222214  0.0003039331317322
  0.7777777777777786  0.2222222222222214  0.0003039331317322
  0.1111111111111119  0.5555555555555547  0.0003039331317322
  0.4444444444444452  0.5555555555555547  0.0003039331317322
  0.7777777777777786  0.5555555555555547  0.0003039331317322
  0.1111111111111119  0.8888888888888881  0.0003039331317322
  0.4444444444444452  0.8888888888888881  0.0003039331317322
  0.7777777777777786  0.8888888888888881  0.0003039331317322
  0.1111111111111119  0.2222222222222214  0.5003039331317322
  0.4444444444444452  0.2222222222222214  0.5003039331317322
  0.7777777777777786  0.2222222222222214  0.5003039331317322
  0.1111111111111119  0.5555555555555547  0.5003039331317322
  0.4444444444444452  0.5555555555555547  0.5003039331317322
  0.7777777777777786  0.5555555555555547  0.5003039331317322
  0.1111111111111119  0.8888888888888881  0.5003039331317322
  0.4444444444444452  0.8888888888888881  0.5003039331317322
  0.7777777777777786  0.8888888888888881  0.5003039331317322
  0.2222222222222214  0.1111111111111119  0.2503039331317322
  0.5555555555555547  0.1111111111111119  0.2503039331317322
  0.8888888888888881  0.1111111111111119  0.2503039331317322
  0.2222222222222214  0.4444444444444452  0.2503039331317322
  0.5555555555555547  0.4444444444444452  0.2503039331317322
  0.8888888888888881  0.4444444444444452  0.2503039331317322
  0.2222222222222214  0.7777777777777786  0.2503039331317322
  0.5555555555555547  0.7777777777777786  0.2503039331317322
  0.8888888888888881  0.7777777777777786  0.2503039331317322
  0.2222222222222214  0.1111111111111119  0.7503039331317323
  0.5555555555555547  0.1111111111111119  0.7503039331317323
  0.8888888888888881  0.1111111111111119  0.7503039331317323
  0.2222222222222214  0.4444444444444452  0.7503039331317323
  0.5555555555555547  0.4444444444444452  0.7503039331317323
  0.8888888888888881  0.4444444444444452  0.7503039331317323
  0.2222222222222214  0.7777777777777786  0.7503039331317323
  0.5555555555555547  0.7777777777777786  0.7503039331317323
  0.8888888888888881  0.7777777777777786  0.7503039331317323
  0.1111111111111119  0.2222222222222214  0.1871960668682678
  0.4444444444444452  0.2222222222222214  0.1871960668682678
  0.7777777777777786  0.2222222222222214  0.1871960668682678
  0.1111111111111119  0.5555555555555547  0.1871960668682678
  0.4444444444444452  0.5555555555555547  0.1871960668682678
  0.7777777777777786  0.5555555555555547  0.1871960668682678
  0.1111111111111119  0.8888888888888881  0.1871960668682678
  0.4444444444444452  0.8888888888888881  0.1871960668682678
  0.7777777777777786  0.8888888888888881  0.1871960668682678
  0.1111111111111119  0.2222222222222214  0.6871960668682678
  0.4444444444444452  0.2222222222222214  0.6871960668682678
  0.7777777777777786  0.2222222222222214  0.6871960668682678
  0.1111111111111119  0.5555555555555547  0.6871960668682678
  0.4444444444444452  0.5555555555555547  0.6871960668682678
  0.7777777777777786  0.5555555555555547  0.6871960668682678
  0.1111111111111119  0.8888888888888881  0.6871960668682678
  0.4444444444444452  0.8888888888888881  0.6871960668682678
  0.7777777777777786  0.8888888888888881  0.6871960668682678
  0.2222222222222214  0.1111111111111119  0.4371960668682678
  0.5555555555555547  0.1111111111111119  0.4371960668682678
  0.8888888888888881  0.1111111111111119  0.4371960668682678
  0.2222222222222214  0.4444444444444452  0.4371960668682678
  0.5555555555555547  0.4444444444444452  0.4371960668682678
  0.8888888888888881  0.4444444444444452  0.4371960668682678
  0.2222222222222214  0.7777777777777786  0.4371960668682678
  0.5555555555555547  0.7777777777777786  0.4371960668682678
  0.8888888888888881  0.7777777777777786  0.4371960668682678
  0.2222222222222214  0.1111111111111119  0.9371960668682677
  0.5555555555555547  0.1111111111111119  0.9371960668682677
  0.8888888888888881  0.1111111111111119  0.9371960668682677
  0.2222222222222214  0.4444444444444452  0.9371960668682677
  0.5555555555555547  0.4444444444444452  0.9371960668682677
  0.8888888888888881  0.4444444444444452  0.9371960668682677
  0.2222222222222214  0.7777777777777786  0.9371960668682677
  0.5555555555555547  0.7777777777777786  0.9371960668682677
  0.8888888888888881  0.7777777777777786  0.9371960668682677
