Zn S 
 1.0000000000000000
     1.8665926591071718   -3.2330333226087147   -0.0000000000000000
     1.8665926591071718    3.2330333226087147    0.0000000000000000
     0.0000000000000000    0.0000000000000000    6.1209223762603777
 Zn  S  
   2   2
Cartesian
  1.8665926591071720  1.0776777742028893  0.0015922567817351
  1.8665926591071720 -1.0776777742028898  3.0620534449119248
  1.8665926591071720  1.0776777742028893  2.2937536343159062
  1.8665926591071720 -1.0776777742028898  5.3542148224460941
Cartesian
  0.0000000000000000  0.0000000000000000  0.0000000000000000
  0.0000000000000000  0.0000000000000000  0.0000000000000000
  0.0000000000000000  0.0000000000000000  0.0000000000000000
  0.0000000000000000  0.0000000000000000  0.0000000000000000
