generated by phonopy                    
   1.00000000000000     
     5.7086947006412281   -9.8877492664098092    0.0000000000000000
     5.7086947006412281    9.8877492664098092    0.0000000000000000
     0.0000000000000000    0.0000000000000000   12.4759632600000003
   Zn   S 
    36    36
Direct
  0.1111111111111143  0.2222222222222214  0.0001557537574115
  0.4444444444444429  0.2222222222222214  0.0001557537574115
  0.7777777777777786  0.2222222222222214  0.0001557537574115
  0.1111111111111143  0.5555555555555571  0.0001557537574115
  0.4444444444444429  0.5555555555555571  0.0001557537574115
  0.7777777777777786  0.5555555555555571  0.0001557537574115
  0.1111111111111143  0.8888888888888857  0.0001557537574115
  0.4444444444444429  0.8888888888888857  0.0001557537574115
  0.7777777777777786  0.8888888888888857  0.0001557537574115
  0.1111111111111143  0.2222222222222214  0.5001557537574115
  0.4444444444444429  0.2222222222222214  0.5001557537574115
  0.7777777777777786  0.2222222222222214  0.5001557537574115
  0.1111111111111143  0.5555555555555571  0.5001557537574115
  0.4444444444444429  0.5555555555555571  0.5001557537574115
  0.7777777777777786  0.5555555555555571  0.5001557537574115
  0.1111111111111143  0.8888888888888857  0.5001557537574115
  0.4444444444444429  0.8888888888888857  0.5001557537574115
  0.7777777777777786  0.8888888888888857  0.5001557537574115
  0.2222222222222214  0.1111111111111143  0.2501557537574115
  0.5555555555555571  0.1111111111111143  0.2501557537574115
  0.8888888888888857  0.1111111111111143  0.2501557537574115
  0.2222222222222214  0.4444444444444429  0.2501557537574115
  0.5555555555555571  0.4444444444444429  0.2501557537574115
  0.8888888888888857  0.4444444444444429  0.2501557537574115
  0.2222222222222214  0.7777777777777786  0.2501557537574115
  0.5555555555555571  0.7777777777777786  0.2501557537574115
  0.8888888888888857  0.7777777777777786  0.2501557537574115
  0.2222222222222214  0.1111111111111143  0.7501557537574115
  0.5555555555555571  0.1111111111111143  0.7501557537574115
  0.8888888888888857  0.1111111111111143  0.7501557537574115
  0.2222222222222214  0.4444444444444429  0.7501557537574115
  0.5555555555555571  0.4444444444444429  0.7501557537574115
  0.8888888888888857  0.4444444444444429  0.7501557537574115
  0.2222222222222214  0.7777777777777786  0.7501557537574115
  0.5555555555555571  0.7777777777777786  0.7501557537574115
  0.8888888888888857  0.7777777777777786  0.7501557537574115
  0.1111111111111143  0.2222222222222214  0.1873442462425885
  0.4444444444444429  0.2222222222222214  0.1873442462425885
  0.7777777777777786  0.2222222222222214  0.1873442462425885
  0.1111111111111143  0.5555555555555571  0.1873442462425885
  0.4444444444444429  0.5555555555555571  0.1873442462425885
  0.7777777777777786  0.5555555555555571  0.1873442462425885
  0.1111111111111143  0.8888888888888857  0.1873442462425885
  0.4444444444444429  0.8888888888888857  0.1873442462425885
  0.7777777777777786  0.8888888888888857  0.1873442462425885
  0.1111111111111143  0.2222222222222214  0.6873442462425885
  0.4444444444444429  0.2222222222222214  0.6873442462425885
  0.7777777777777786  0.2222222222222214  0.6873442462425885
  0.1111111111111143  0.5555555555555571  0.6873442462425885
  0.4444444444444429  0.5555555555555571  0.6873442462425885
  0.7777777777777786  0.5555555555555571  0.6873442462425885
  0.1111111111111143  0.8888888888888857  0.6873442462425885
  0.4444444444444429  0.8888888888888857  0.6873442462425885
  0.7777777777777786  0.8888888888888857  0.6873442462425885
  0.2222222222222214  0.1111111111111143  0.4373442462425885
  0.5555555555555571  0.1111111111111143  0.4373442462425885
  0.8888888888888857  0.1111111111111143  0.4373442462425885
  0.2222222222222214  0.4444444444444429  0.4373442462425885
  0.5555555555555571  0.4444444444444429  0.4373442462425885
  0.8888888888888857  0.4444444444444429  0.4373442462425885
  0.2222222222222214  0.7777777777777786  0.4373442462425885
  0.5555555555555571  0.7777777777777786  0.4373442462425885
  0.8888888888888857  0.7777777777777786  0.4373442462425885
  0.2222222222222214  0.1111111111111143  0.9373442462425885
  0.5555555555555571  0.1111111111111143  0.9373442462425885
  0.8888888888888857  0.1111111111111143  0.9373442462425885
  0.2222222222222214  0.4444444444444429  0.9373442462425885
  0.5555555555555571  0.4444444444444429  0.9373442462425885
  0.8888888888888857  0.4444444444444429  0.9373442462425885
  0.2222222222222214  0.7777777777777786  0.9373442462425885
  0.5555555555555571  0.7777777777777786  0.9373442462425885
  0.8888888888888857  0.7777777777777786  0.9373442462425885
 
  0.00000000E+00  0.00000000E+00  0.00000000E+00
  0.00000000E+00  0.00000000E+00  0.00000000E+00
  0.00000000E+00  0.00000000E+00  0.00000000E+00
  0.00000000E+00  0.00000000E+00  0.00000000E+00
  0.00000000E+00  0.00000000E+00  0.00000000E+00
  0.00000000E+00  0.00000000E+00  0.00000000E+00
  0.00000000E+00  0.00000000E+00  0.00000000E+00
  0.00000000E+00  0.00000000E+00  0.00000000E+00
  0.00000000E+00  0.00000000E+00  0.00000000E+00
  0.00000000E+00  0.00000000E+00  0.00000000E+00
  0.00000000E+00  0.00000000E+00  0.00000000E+00
  0.00000000E+00  0.00000000E+00  0.00000000E+00
  0.00000000E+00  0.00000000E+00  0.00000000E+00
  0.00000000E+00  0.00000000E+00  0.00000000E+00
  0.00000000E+00  0.00000000E+00  0.00000000E+00
  0.00000000E+00  0.00000000E+00  0.00000000E+00
  0.00000000E+00  0.00000000E+00  0.00000000E+00
  0.00000000E+00  0.00000000E+00  0.00000000E+00
  0.00000000E+00  0.00000000E+00  0.00000000E+00
  0.00000000E+00  0.00000000E+00  0.00000000E+00
  0.00000000E+00  0.00000000E+00  0.00000000E+00
  0.00000000E+00  0.00000000E+00  0.00000000E+00
  0.00000000E+00  0.00000000E+00  0.00000000E+00
  0.00000000E+00  0.00000000E+00  0.00000000E+00
  0.00000000E+00  0.00000000E+00  0.00000000E+00
  0.00000000E+00  0.00000000E+00  0.00000000E+00
  0.00000000E+00  0.00000000E+00  0.00000000E+00
  0.00000000E+00  0.00000000E+00  0.00000000E+00
  0.00000000E+00  0.00000000E+00  0.00000000E+00
  0.00000000E+00  0.00000000E+00  0.00000000E+00
  0.00000000E+00  0.00000000E+00  0.00000000E+00
  0.00000000E+00  0.00000000E+00  0.00000000E+00
  0.00000000E+00  0.00000000E+00  0.00000000E+00
  0.00000000E+00  0.00000000E+00  0.00000000E+00
  0.00000000E+00  0.00000000E+00  0.00000000E+00
  0.00000000E+00  0.00000000E+00  0.00000000E+00
  0.00000000E+00  0.00000000E+00  0.00000000E+00
  0.00000000E+00  0.00000000E+00  0.00000000E+00
  0.00000000E+00  0.00000000E+00  0.00000000E+00
  0.00000000E+00  0.00000000E+00  0.00000000E+00
  0.00000000E+00  0.00000000E+00  0.00000000E+00
  0.00000000E+00  0.00000000E+00  0.00000000E+00
  0.00000000E+00  0.00000000E+00  0.00000000E+00
  0.00000000E+00  0.00000000E+00  0.00000000E+00
  0.00000000E+00  0.00000000E+00  0.00000000E+00
  0.00000000E+00  0.00000000E+00  0.00000000E+00
  0.00000000E+00  0.00000000E+00  0.00000000E+00
  0.00000000E+00  0.00000000E+00  0.00000000E+00
  0.00000000E+00  0.00000000E+00  0.00000000E+00
  0.00000000E+00  0.00000000E+00  0.00000000E+00
  0.00000000E+00  0.00000000E+00  0.00000000E+00
  0.00000000E+00  0.00000000E+00  0.00000000E+00
  0.00000000E+00  0.00000000E+00  0.00000000E+00
  0.00000000E+00  0.00000000E+00  0.00000000E+00
  0.00000000E+00  0.00000000E+00  0.00000000E+00
  0.00000000E+00  0.00000000E+00  0.00000000E+00
  0.00000000E+00  0.00000000E+00  0.00000000E+00
  0.00000000E+00  0.00000000E+00  0.00000000E+00
  0.00000000E+00  0.00000000E+00  0.00000000E+00
  0.00000000E+00  0.00000000E+00  0.00000000E+00
  0.00000000E+00  0.00000000E+00  0.00000000E+00
  0.00000000E+00  0.00000000E+00  0.00000000E+00
  0.00000000E+00  0.00000000E+00  0.00000000E+00
  0.00000000E+00  0.00000000E+00  0.00000000E+00
  0.00000000E+00  0.00000000E+00  0.00000000E+00
  0.00000000E+00  0.00000000E+00  0.00000000E+00
  0.00000000E+00  0.00000000E+00  0.00000000E+00
  0.00000000E+00  0.00000000E+00  0.00000000E+00
  0.00000000E+00  0.00000000E+00  0.00000000E+00
  0.00000000E+00  0.00000000E+00  0.00000000E+00
  0.00000000E+00  0.00000000E+00  0.00000000E+00
  0.00000000E+00  0.00000000E+00  0.00000000E+00
