generated by phonopy
   1.0
     5.8884263266679850  -10.1990535744151209    0.0000000000000000
     5.8884263266679850   10.1990535744151209    0.0000000000000000
     0.0000000000000000    0.0000000000000000   12.8728676779084239
Zn S
  36   36
Direct
  0.1111111111111119  0.2222222222222214  0.0000259607690484
  0.4444444444444452  0.2222222222222214  0.0000259607690484
  0.7777777777777786  0.2222222222222214  0.0000259607690484
  0.1111111111111119  0.5555555555555547  0.0000259607690484
  0.4444444444444452  0.5555555555555547  0.0000259607690484
  0.7777777777777786  0.5555555555555547  0.0000259607690484
  0.1111111111111119  0.8888888888888881  0.0000259607690484
  0.4444444444444452  0.8888888888888881  0.0000259607690484
  0.7777777777777786  0.8888888888888881  0.0000259607690484
  0.1111111111111119  0.2222222222222214  0.5000259607690485
  0.4444444444444452  0.2222222222222214  0.5000259607690485
  0.7777777777777786  0.2222222222222214  0.5000259607690485
  0.1111111111111119  0.5555555555555547  0.5000259607690485
  0.4444444444444452  0.5555555555555547  0.5000259607690485
  0.7777777777777786  0.5555555555555547  0.5000259607690485
  0.1111111111111119  0.8888888888888881  0.5000259607690485
  0.4444444444444452  0.8888888888888881  0.5000259607690485
  0.7777777777777786  0.8888888888888881  0.5000259607690485
  0.2222222222222214  0.1111111111111119  0.2500259607690484
  0.5555555555555547  0.1111111111111119  0.2500259607690484
  0.8888888888888881  0.1111111111111119  0.2500259607690484
  0.2222222222222214  0.4444444444444452  0.2500259607690484
  0.5555555555555547  0.4444444444444452  0.2500259607690484
  0.8888888888888881  0.4444444444444452  0.2500259607690484
  0.2222222222222214  0.7777777777777786  0.2500259607690484
  0.5555555555555547  0.7777777777777786  0.2500259607690484
  0.8888888888888881  0.7777777777777786  0.2500259607690484
  0.2222222222222214  0.1111111111111119  0.7500259607690485
  0.5555555555555547  0.1111111111111119  0.7500259607690485
  0.8888888888888881  0.1111111111111119  0.7500259607690485
  0.2222222222222214  0.4444444444444452  0.7500259607690485
  0.5555555555555547  0.4444444444444452  0.7500259607690485
  0.8888888888888881  0.4444444444444452  0.7500259607690485
  0.2222222222222214  0.7777777777777786  0.7500259607690485
  0.5555555555555547  0.7777777777777786  0.7500259607690485
  0.8888888888888881  0.7777777777777786  0.7500259607690485
  0.1111111111111119  0.2222222222222214  0.1874740392309515
  0.4444444444444452  0.2222222222222214  0.1874740392309515
  0.7777777777777786  0.2222222222222214  0.1874740392309515
  0.1111111111111119  0.5555555555555547  0.1874740392309515
  0.4444444444444452  0.5555555555555547  0.1874740392309515
  0.7777777777777786  0.5555555555555547  0.1874740392309515
  0.1111111111111119  0.8888888888888881  0.1874740392309515
  0.4444444444444452  0.8888888888888881  0.1874740392309515
  0.7777777777777786  0.8888888888888881  0.1874740392309515
  0.1111111111111119  0.2222222222222214  0.6874740392309515
  0.4444444444444452  0.2222222222222214  0.6874740392309515
  0.7777777777777786  0.2222222222222214  0.6874740392309515
  0.1111111111111119  0.5555555555555547  0.6874740392309515
  0.4444444444444452  0.5555555555555547  0.6874740392309515
  0.7777777777777786  0.5555555555555547  0.6874740392309515
  0.1111111111111119  0.8888888888888881  0.6874740392309515
  0.4444444444444452  0.8888888888888881  0.6874740392309515
  0.7777777777777786  0.8888888888888881  0.6874740392309515
  0.2222222222222214  0.1111111111111119  0.4374740392309516
  0.5555555555555547  0.1111111111111119  0.4374740392309516
  0.8888888888888881  0.1111111111111119  0.4374740392309516
  0.2222222222222214  0.4444444444444452  0.4374740392309516
  0.5555555555555547  0.4444444444444452  0.4374740392309516
  0.8888888888888881  0.4444444444444452  0.4374740392309516
  0.2222222222222214  0.7777777777777786  0.4374740392309516
  0.5555555555555547  0.7777777777777786  0.4374740392309516
  0.8888888888888881  0.7777777777777786  0.4374740392309516
  0.2222222222222214  0.1111111111111119  0.9374740392309515
  0.5555555555555547  0.1111111111111119  0.9374740392309515
  0.8888888888888881  0.1111111111111119  0.9374740392309515
  0.2222222222222214  0.4444444444444452  0.9374740392309515
  0.5555555555555547  0.4444444444444452  0.9374740392309515
  0.8888888888888881  0.4444444444444452  0.9374740392309515
  0.2222222222222214  0.7777777777777786  0.9374740392309515
  0.5555555555555547  0.7777777777777786  0.9374740392309515
  0.8888888888888881  0.7777777777777786  0.9374740392309515
