Zn S 
 1.0000000000000000
     1.9435655522662303   -3.3663542843657752   -0.0000000000000000
     1.9435655522662303    3.3663542843657752    0.0000000000000000
     0.0000000000000000    0.0000000000000000    6.3733315464154456
 Zn  S  
   2   2
Cartesian
  1.9435655522662303  1.1221180947885756  0.0016579168552088
  1.9435655522662303 -1.1221180947885760  3.1883236900629321
  1.9435655522662303  1.1221180947885756  2.3883414130505831
  1.9435655522662303 -1.1221180947885760  5.5750071862583050
Cartesian
  0.0000000000000000  0.0000000000000000  0.0000000000000000
  0.0000000000000000  0.0000000000000000  0.0000000000000000
  0.0000000000000000  0.0000000000000000  0.0000000000000000
  0.0000000000000000  0.0000000000000000  0.0000000000000000
