Zn S                                    
   1.0000000000000000     
     2.0012952221355245   -3.4663450056835705    0.0000000000000000
     2.0012952221355245    3.4663450056835705    0.0000000000000000
     0.0000000000000000    0.0000000000000000    6.5626384240317455
   Zn   S 
     2     2
Direct
  0.3333333333333357  0.6666666666666643 -0.0001808834527008
  0.6666666666666643  0.3333333333333357  0.4998191165472991
  0.3333333333333357  0.6666666666666643  0.3751808834527007
  0.6666666666666643  0.3333333333333357  0.8751808834527008

  0.00000000E+00  0.00000000E+00  0.00000000E+00
  0.00000000E+00  0.00000000E+00  0.00000000E+00
  0.00000000E+00  0.00000000E+00  0.00000000E+00
  0.00000000E+00  0.00000000E+00  0.00000000E+00
