K-Path Generated by vasputils.
   20
Line-Mode
Reciprocal
0.0000000000 0.0000000000 0.0000000000 Gamma
0.0000000000 0.0000000000 0.5000000000 A

0.0000000000 0.0000000000 0.5000000000 A
0.3333333333 0.3333333333 0.5000000000 H

0.3333333333 0.3333333333 0.5000000000 H
0.3333333333 0.3333333333 0.0000000000 K

0.3333333333 0.3333333333 0.0000000000 K
0.5000000000 0.0000000000 0.5000000000 L

0.5000000000 0.0000000000 0.5000000000 L
0.5000000000 0.0000000000 0.0000000000 M

