Zn S                                    
   1.0000000000000000     
     1.9820519988457597   -3.4330147652443053    0.0000000000000000
     1.9820519988457597    3.4330147652443053    0.0000000000000000
     0.0000000000000000    0.0000000000000000    6.4995361314929792
   Zn   S 
     2     2
Direct
  0.3333333333333357  0.6666666666666643 -0.0000585802076847
  0.6666666666666643  0.3333333333333357  0.4999414197923152
  0.3333333333333357  0.6666666666666643  0.3750585802076847
  0.6666666666666643  0.3333333333333357  0.8750585802076848

  0.00000000E+00  0.00000000E+00  0.00000000E+00
  0.00000000E+00  0.00000000E+00  0.00000000E+00
  0.00000000E+00  0.00000000E+00  0.00000000E+00
  0.00000000E+00  0.00000000E+00  0.00000000E+00
