Zn S 
 1.0000000000000000
     2.0012952221355245   -3.4663450056835705   -0.0000000000000000
     2.0012952221355245    3.4663450056835705    0.0000000000000000
     0.0000000000000000    0.0000000000000000    6.5626384240317455
 Zn  S  
   2   2
Cartesian
  2.0012952221355245  1.1554483352278404  0.0017071619103140
  2.0012952221355245 -1.1554483352278406  3.2830263739261878
  2.0012952221355245  1.1554483352278404  2.4592822471015903
  2.0012952221355245 -1.1554483352278406  5.7406014591174621
Cartesian
  0.0000000000000000  0.0000000000000000  0.0000000000000000
  0.0000000000000000  0.0000000000000000  0.0000000000000000
  0.0000000000000000  0.0000000000000000  0.0000000000000000
  0.0000000000000000  0.0000000000000000  0.0000000000000000
