generated by phonopy
   1.0
     6.0038856664065730  -10.3990350170507106    0.0000000000000000
     6.0038856664065730   10.3990350170507106    0.0000000000000000
     0.0000000000000000    0.0000000000000000   13.1252768480634909
Zn S
  36   36
Direct
  0.1111111111111119  0.2222222222222214  0.9999095582736496
  0.4444444444444452  0.2222222222222214  0.9999095582736496
  0.7777777777777786  0.2222222222222214  0.9999095582736496
  0.1111111111111119  0.5555555555555547  0.9999095582736496
  0.4444444444444452  0.5555555555555547  0.9999095582736496
  0.7777777777777786  0.5555555555555547  0.9999095582736496
  0.1111111111111119  0.8888888888888881  0.9999095582736496
  0.4444444444444452  0.8888888888888881  0.9999095582736496
  0.7777777777777786  0.8888888888888881  0.9999095582736496
  0.1111111111111119  0.2222222222222214  0.4999095582736496
  0.4444444444444452  0.2222222222222214  0.4999095582736496
  0.7777777777777786  0.2222222222222214  0.4999095582736496
  0.1111111111111119  0.5555555555555547  0.4999095582736496
  0.4444444444444452  0.5555555555555547  0.4999095582736496
  0.7777777777777786  0.5555555555555547  0.4999095582736496
  0.1111111111111119  0.8888888888888881  0.4999095582736496
  0.4444444444444452  0.8888888888888881  0.4999095582736496
  0.7777777777777786  0.8888888888888881  0.4999095582736496
  0.2222222222222214  0.1111111111111119  0.2499095582736496
  0.5555555555555547  0.1111111111111119  0.2499095582736496
  0.8888888888888881  0.1111111111111119  0.2499095582736496
  0.2222222222222214  0.4444444444444452  0.2499095582736496
  0.5555555555555547  0.4444444444444452  0.2499095582736496
  0.8888888888888881  0.4444444444444452  0.2499095582736496
  0.2222222222222214  0.7777777777777786  0.2499095582736496
  0.5555555555555547  0.7777777777777786  0.2499095582736496
  0.8888888888888881  0.7777777777777786  0.2499095582736496
  0.2222222222222214  0.1111111111111119  0.7499095582736496
  0.5555555555555547  0.1111111111111119  0.7499095582736496
  0.8888888888888881  0.1111111111111119  0.7499095582736496
  0.2222222222222214  0.4444444444444452  0.7499095582736496
  0.5555555555555547  0.4444444444444452  0.7499095582736496
  0.8888888888888881  0.4444444444444452  0.7499095582736496
  0.2222222222222214  0.7777777777777786  0.7499095582736496
  0.5555555555555547  0.7777777777777786  0.7499095582736496
  0.8888888888888881  0.7777777777777786  0.7499095582736496
  0.1111111111111119  0.2222222222222214  0.1875904417263503
  0.4444444444444452  0.2222222222222214  0.1875904417263503
  0.7777777777777786  0.2222222222222214  0.1875904417263503
  0.1111111111111119  0.5555555555555547  0.1875904417263503
  0.4444444444444452  0.5555555555555547  0.1875904417263503
  0.7777777777777786  0.5555555555555547  0.1875904417263503
  0.1111111111111119  0.8888888888888881  0.1875904417263503
  0.4444444444444452  0.8888888888888881  0.1875904417263503
  0.7777777777777786  0.8888888888888881  0.1875904417263503
  0.1111111111111119  0.2222222222222214  0.6875904417263503
  0.4444444444444452  0.2222222222222214  0.6875904417263503
  0.7777777777777786  0.2222222222222214  0.6875904417263503
  0.1111111111111119  0.5555555555555547  0.6875904417263503
  0.4444444444444452  0.5555555555555547  0.6875904417263503
  0.7777777777777786  0.5555555555555547  0.6875904417263503
  0.1111111111111119  0.8888888888888881  0.6875904417263503
  0.4444444444444452  0.8888888888888881  0.6875904417263503
  0.7777777777777786  0.8888888888888881  0.6875904417263503
  0.2222222222222214  0.1111111111111119  0.4375904417263504
  0.5555555555555547  0.1111111111111119  0.4375904417263504
  0.8888888888888881  0.1111111111111119  0.4375904417263504
  0.2222222222222214  0.4444444444444452  0.4375904417263504
  0.5555555555555547  0.4444444444444452  0.4375904417263504
  0.8888888888888881  0.4444444444444452  0.4375904417263504
  0.2222222222222214  0.7777777777777786  0.4375904417263504
  0.5555555555555547  0.7777777777777786  0.4375904417263504
  0.8888888888888881  0.7777777777777786  0.4375904417263504
  0.2222222222222214  0.1111111111111119  0.9375904417263504
  0.5555555555555547  0.1111111111111119  0.9375904417263504
  0.8888888888888881  0.1111111111111119  0.9375904417263504
  0.2222222222222214  0.4444444444444452  0.9375904417263504
  0.5555555555555547  0.4444444444444452  0.9375904417263504
  0.8888888888888881  0.4444444444444452  0.9375904417263504
  0.2222222222222214  0.7777777777777786  0.9375904417263504
  0.5555555555555547  0.7777777777777786  0.9375904417263504
  0.8888888888888881  0.7777777777777786  0.9375904417263504
