Zn S 
 1.0000000000000000
     1.8858358823969363   -3.2663635630479799   -0.0000000000000000
     1.8858358823969363    3.2663635630479799    0.0000000000000000
     0.0000000000000000    0.0000000000000000    6.1840246687991449
 Zn  S  
   2   2
Cartesian
  1.8858358823969363  1.0887878543493112  0.0016086718001035
  1.8858358823969363 -1.0887878543493112  3.0936210061996769
  1.8858358823969363  1.0887878543493112  2.3174005789995755
  1.8858358823969363 -1.0887878543493112  5.4094129133991471
Cartesian
  0.0000000000000000  0.0000000000000000  0.0000000000000000
  0.0000000000000000  0.0000000000000000  0.0000000000000000
  0.0000000000000000  0.0000000000000000  0.0000000000000000
  0.0000000000000000  0.0000000000000000  0.0000000000000000
