Zn S                                    
   1.0000000000000000     
     1.8281062125276424   -3.1663728417301842    0.0000000000000000
     1.8281062125276424    3.1663728417301842    0.0000000000000000
     0.0000000000000000    0.0000000000000000    5.9947177911828442
   Zn   S 
     2     2
Direct
  0.3333333333333357  0.6666666666666643  0.0006078662634644
  0.6666666666666643  0.3333333333333357  0.5006078662634644
  0.3333333333333357  0.6666666666666643  0.3743921337365356
  0.6666666666666643  0.3333333333333357  0.8743921337365356

  0.00000000E+00  0.00000000E+00  0.00000000E+00
  0.00000000E+00  0.00000000E+00  0.00000000E+00
  0.00000000E+00  0.00000000E+00  0.00000000E+00
  0.00000000E+00  0.00000000E+00  0.00000000E+00
