Zn S 
 1.0000000000000000
     1.9050791056867011   -3.2996938034872447   -0.0000000000000000
     1.9050791056867011    3.2996938034872447    0.0000000000000000
     0.0000000000000000    0.0000000000000000    6.2471269613379112
 Zn  S  
   2   2
Cartesian
  1.9050791056867014  1.0998979344957327  0.0016250868184719
  1.9050791056867014 -1.0998979344957327  3.1251885674874287
  1.9050791056867014  1.0998979344957327  2.3410475236832444
  1.9050791056867014 -1.0998979344957327  5.4646110043521992
Cartesian
  0.0000000000000000  0.0000000000000000  0.0000000000000000
  0.0000000000000000  0.0000000000000000  0.0000000000000000
  0.0000000000000000  0.0000000000000000  0.0000000000000000
  0.0000000000000000  0.0000000000000000  0.0000000000000000
