Zn2 S2                                  
   1.0000000000000000     
     1.9028982335470761   -3.2959164221366031    0.0000000000000000
     1.9028982335470761    3.2959164221366031    0.0000000000000000
     0.0000000000000000    0.0000000000000000    6.2379816300000002
   Zn   S 
     2     2
Direct
  0.3333333333333357  0.6666666666666643  0.0003115075148190
  0.6666666666666643  0.3333333333333357  0.5003115075148191
  0.3333333333333357  0.6666666666666643  0.3746884924851810
  0.6666666666666643  0.3333333333333357  0.8746884924851809

  0.00000000E+00  0.00000000E+00  0.00000000E+00
  0.00000000E+00  0.00000000E+00  0.00000000E+00
  0.00000000E+00  0.00000000E+00  0.00000000E+00
  0.00000000E+00  0.00000000E+00  0.00000000E+00
