Zn2 S2                                  
   1.0000000000000000     
     1.9028982335470761   -3.2959164221366031    0.0000000000000000
     1.9028982335470761    3.2959164221366031    0.0000000000000000
     0.0000000000000000    0.0000000000000000    6.2379816300000002
   Zn   S 
     2     2
Direct
  0.3333333333333357  0.6666666666666643  0.0002321105446225
  0.6666666666666643  0.3333333333333357  0.5002321105446225
  0.3333333333333357  0.6666666666666643  0.3747678894553775
  0.6666666666666643  0.3333333333333357  0.8747678894553775

  0.00000000E+00  0.00000000E+00  0.00000000E+00
  0.00000000E+00  0.00000000E+00  0.00000000E+00
  0.00000000E+00  0.00000000E+00  0.00000000E+00
  0.00000000E+00  0.00000000E+00  0.00000000E+00
