Si O                                    
   1.0000000000000000     
     2.5058712126566087   -4.3402962575454733    0.0000000000000000
     2.5058712126566007    4.3402962575454733   -0.0000000000000000
     0.0000000000000000   -0.0000000000000000    5.5038368710385388
   Si   O 
     3     6
Direct
 -0.0000000000000000  0.4749659779516605  0.3333333333333357
  0.5250340220483436  0.5250340220483436  0.0000000000000000
  0.4749659779516605  0.0000000000000000  0.6666666666666643
  0.1560942902432419  0.7414551809096704  0.5406931659211940
  0.5853608906664232  0.8439057097567583  0.8740264992545298
  0.2585448190903267  0.4146391093335767  0.2073598325878633
  0.4146391093335767  0.2585448190903267  0.7926401674121345
  0.8439057097567583  0.5853608906664232  0.1259735007454719
  0.7414551809096704  0.1560942902432419  0.4593068340788002

  0.00000000E+00  0.00000000E+00  0.00000000E+00
  0.00000000E+00  0.00000000E+00  0.00000000E+00
  0.00000000E+00  0.00000000E+00  0.00000000E+00
  0.00000000E+00  0.00000000E+00  0.00000000E+00
  0.00000000E+00  0.00000000E+00  0.00000000E+00
  0.00000000E+00  0.00000000E+00  0.00000000E+00
  0.00000000E+00  0.00000000E+00  0.00000000E+00
  0.00000000E+00  0.00000000E+00  0.00000000E+00
  0.00000000E+00  0.00000000E+00  0.00000000E+00
