Si O 
 1.0000000000000000
     2.4582789037025461   -4.2578639603875290    0.0000000000000000
     2.4582789037025461    4.2578639603875290    0.0000000000000000
     0.0000000000000000    0.0000000000000000    5.4316252501287119
 Si  O  
   3   6
Cartesian
  1.1462438678140268  1.9853526169181583  1.8105417500429168
  2.6240700717770387 -0.0000000000000002  0.0000000000000000
  1.1462438678140268 -1.9853526169181583  3.6210835000857950
  2.1237104764197290  2.5109006762901349  3.0013480060159829
  3.5709274375394466  1.1632263993798551  4.8118897560588998
  1.6801987971484624  0.5837368847176012  1.1908062559731045
  1.6801987971484624 -0.5837368847176013  4.2408189941556076
  3.5709274375394471 -1.1632263993798546  0.6197354940698122
  2.1237104764197290 -2.5109006762901349  2.4302772441126903
