Zn S 
 1.0000000000000000
     1.9243223289764657   -3.3330240439265100   -0.0000000000000000
     1.9243223289764657    3.3330240439265100    0.0000000000000000
     0.0000000000000000    0.0000000000000000    6.3102292538766784
 Zn  S  
   2   2
Cartesian
  1.9243223289764657  1.1110080146421542  0.0016415018368404
  1.9243223289764657 -1.1110080146421544  3.1567561287751804
  1.9243223289764657  1.1110080146421542  2.3646944683669138
  1.9243223289764657 -1.1110080146421544  5.5198090953052521
Cartesian
  0.0000000000000000  0.0000000000000000  0.0000000000000000
  0.0000000000000000  0.0000000000000000  0.0000000000000000
  0.0000000000000000  0.0000000000000000  0.0000000000000000
  0.0000000000000000  0.0000000000000000  0.0000000000000000
