Zn S                                    
   1.0000000000000000     
     1.9050791056867011   -3.2996938034872447    0.0000000000000000
     1.9050791056867011    3.2996938034872447    0.0000000000000000
     0.0000000000000000    0.0000000000000000    6.2471269613379112
   Zn   S 
     2     2
Direct
  0.3333333333333357  0.6666666666666643  0.0003309066711470
  0.6666666666666643  0.3333333333333357  0.5003309066711471
  0.3333333333333357  0.6666666666666643  0.3746690933288530
  0.6666666666666643  0.3333333333333357  0.8746690933288529

  0.00000000E+00  0.00000000E+00  0.00000000E+00
  0.00000000E+00  0.00000000E+00  0.00000000E+00
  0.00000000E+00  0.00000000E+00  0.00000000E+00
  0.00000000E+00  0.00000000E+00  0.00000000E+00
