generated by phonopy
   1.0
     5.7152373170601036   -9.8990814104617346    0.0000000000000000
     5.7152373170601036    9.8990814104617346    0.0000000000000000
     0.0000000000000000    0.0000000000000000   12.4942539226758225
Zn S
  36   36
Direct
  0.1111111111111119  0.2222222222222214  0.0001654533355735
  0.4444444444444452  0.2222222222222214  0.0001654533355735
  0.7777777777777786  0.2222222222222214  0.0001654533355735
  0.1111111111111119  0.5555555555555547  0.0001654533355735
  0.4444444444444452  0.5555555555555547  0.0001654533355735
  0.7777777777777786  0.5555555555555547  0.0001654533355735
  0.1111111111111119  0.8888888888888881  0.0001654533355735
  0.4444444444444452  0.8888888888888881  0.0001654533355735
  0.7777777777777786  0.8888888888888881  0.0001654533355735
  0.1111111111111119  0.2222222222222214  0.5001654533355735
  0.4444444444444452  0.2222222222222214  0.5001654533355735
  0.7777777777777786  0.2222222222222214  0.5001654533355735
  0.1111111111111119  0.5555555555555547  0.5001654533355735
  0.4444444444444452  0.5555555555555547  0.5001654533355735
  0.7777777777777786  0.5555555555555547  0.5001654533355735
  0.1111111111111119  0.8888888888888881  0.5001654533355735
  0.4444444444444452  0.8888888888888881  0.5001654533355735
  0.7777777777777786  0.8888888888888881  0.5001654533355735
  0.2222222222222214  0.1111111111111119  0.2501654533355736
  0.5555555555555547  0.1111111111111119  0.2501654533355736
  0.8888888888888881  0.1111111111111119  0.2501654533355736
  0.2222222222222214  0.4444444444444452  0.2501654533355736
  0.5555555555555547  0.4444444444444452  0.2501654533355736
  0.8888888888888881  0.4444444444444452  0.2501654533355736
  0.2222222222222214  0.7777777777777786  0.2501654533355736
  0.5555555555555547  0.7777777777777786  0.2501654533355736
  0.8888888888888881  0.7777777777777786  0.2501654533355736
  0.2222222222222214  0.1111111111111119  0.7501654533355735
  0.5555555555555547  0.1111111111111119  0.7501654533355735
  0.8888888888888881  0.1111111111111119  0.7501654533355735
  0.2222222222222214  0.4444444444444452  0.7501654533355735
  0.5555555555555547  0.4444444444444452  0.7501654533355735
  0.8888888888888881  0.4444444444444452  0.7501654533355735
  0.2222222222222214  0.7777777777777786  0.7501654533355735
  0.5555555555555547  0.7777777777777786  0.7501654533355735
  0.8888888888888881  0.7777777777777786  0.7501654533355735
  0.1111111111111119  0.2222222222222214  0.1873345466644265
  0.4444444444444452  0.2222222222222214  0.1873345466644265
  0.7777777777777786  0.2222222222222214  0.1873345466644265
  0.1111111111111119  0.5555555555555547  0.1873345466644265
  0.4444444444444452  0.5555555555555547  0.1873345466644265
  0.7777777777777786  0.5555555555555547  0.1873345466644265
  0.1111111111111119  0.8888888888888881  0.1873345466644265
  0.4444444444444452  0.8888888888888881  0.1873345466644265
  0.7777777777777786  0.8888888888888881  0.1873345466644265
  0.1111111111111119  0.2222222222222214  0.6873345466644265
  0.4444444444444452  0.2222222222222214  0.6873345466644265
  0.7777777777777786  0.2222222222222214  0.6873345466644265
  0.1111111111111119  0.5555555555555547  0.6873345466644265
  0.4444444444444452  0.5555555555555547  0.6873345466644265
  0.7777777777777786  0.5555555555555547  0.6873345466644265
  0.1111111111111119  0.8888888888888881  0.6873345466644265
  0.4444444444444452  0.8888888888888881  0.6873345466644265
  0.7777777777777786  0.8888888888888881  0.6873345466644265
  0.2222222222222214  0.1111111111111119  0.4373345466644264
  0.5555555555555547  0.1111111111111119  0.4373345466644264
  0.8888888888888881  0.1111111111111119  0.4373345466644264
  0.2222222222222214  0.4444444444444452  0.4373345466644264
  0.5555555555555547  0.4444444444444452  0.4373345466644264
  0.8888888888888881  0.4444444444444452  0.4373345466644264
  0.2222222222222214  0.7777777777777786  0.4373345466644264
  0.5555555555555547  0.7777777777777786  0.4373345466644264
  0.8888888888888881  0.7777777777777786  0.4373345466644264
  0.2222222222222214  0.1111111111111119  0.9373345466644265
  0.5555555555555547  0.1111111111111119  0.9373345466644265
  0.8888888888888881  0.1111111111111119  0.9373345466644265
  0.2222222222222214  0.4444444444444452  0.9373345466644265
  0.5555555555555547  0.4444444444444452  0.9373345466644265
  0.8888888888888881  0.4444444444444452  0.9373345466644265
  0.2222222222222214  0.7777777777777786  0.9373345466644265
  0.5555555555555547  0.7777777777777786  0.9373345466644265
  0.8888888888888881  0.7777777777777786  0.9373345466644265
