Si O 
 1.0000000000000000
     2.4582789037025461   -4.2578639603875290    0.0000000000000000
     2.4582789037025461    4.2578639603875290    0.0000000000000000
     0.0000000000000000    0.0000000000000000    5.4316252501287119
 Si  O  
   3   6
Cartesian
  1.1524367989020941  1.9960790882104635  1.8105417500429020
  2.6116842096009041  0.0000000000000001  0.0000000000000000
  1.1524367989020941 -1.9960790882104635  3.6210835000858048
  2.1533986062493820  2.4989464470969085  2.9755507718754113
  3.5457307064606391  1.1434928393531063  4.7860925219183139
  1.6757073983976105  0.6154246739375188  1.1650090218325089
  1.6757073983976105 -0.6154246739375189  4.2666162282961979
  3.5457307064606391 -1.1434928393531065  0.6455327282103934
  2.1533986062493824 -2.4989464470969085  2.4560744782532953
